 # Version information for this restart file 
 # current date 2018-03-24 08:31:00.479
 # current working dir /home/user/LOKT.02.048/week5/IR
 # Program compiled at                              Sat Aug  5 09:59:49 UTC 2017
 # Program compiled on                                                  lgw01-13
 # Program compiled for                                    Linux-x86_64-gfortran
 # Source code revision number                                         svn:17462
 &GLOBAL
   EXTENDED_FFT_LENGTHS  T
   PRINT_LEVEL  LOW
   PROJECT_NAME WATER
   RUN_TYPE  MD
   WALLTIME 86000
 &END GLOBAL
 &MOTION
   &MD
     ENSEMBLE  NVE
     STEPS  100
     TIMESTEP     4.9999999999999994E-01
     STEP_START_VAL  40
     TIME_START_VAL     2.0000000000000011E+01
     ECONS_START_VAL    -1.3005078063362490E+02
     TEMPERATURE     3.0000000000000000E+02
     &AVERAGES  T
       &RESTART_AVERAGES
         ITIMES_START  1
         AVECPU     4.0031908728749848E+00
         AVEHUGONIOT     0.0000000000000000E+00
         AVETEMP_BARO     0.0000000000000000E+00
         AVEPOT    -1.3021861005587212E+02
         AVEKIN     1.6731410309886630E-01
         AVETEMP     3.7470604251944224E+02
         AVEKIN_QM     0.0000000000000000E+00
         AVETEMP_QM     0.0000000000000000E+00
         AVEVOL     1.1661122159579521E+04
         AVECELL_A     2.2676713594627699E+01
         AVECELL_B     2.2676713594627699E+01
         AVECELL_C     2.2676713594627699E+01
         AVEALPHA     9.0000000000000000E+01
         AVEBETA     9.0000000000000000E+01
         AVEGAMMA     9.0000000000000000E+01
         AVE_ECONS    -1.6917727946206325E+00
         AVE_PRESS     0.0000000000000000E+00
         AVE_PXX     0.0000000000000000E+00
       &END RESTART_AVERAGES
     &END AVERAGES
     &PRINT
       &ENERGY  SILENT
         &EACH
           MD  20
         &END EACH
       &END ENERGY
       &PROGRAM_RUN_INFO  SILENT
         &EACH
           MD  20
         &END EACH
       &END PROGRAM_RUN_INFO
     &END PRINT
   &END MD
 &END MOTION
 &FORCE_EVAL
   METHOD  QS
   &DFT
     &SCF
       MAX_SCF  2000
       EPS_SCF     2.9999999999999999E-07
       SCF_GUESS  ATOMIC
       &OT  T
         MINIMIZER  CG
         PRECONDITIONER  FULL_SINGLE_INVERSE
       &END OT
     &END SCF
     &QS
       METHOD  DFTB
       &DFTB
         SELF_CONSISTENT  T
         ORTHOGONAL_BASIS  F
         DO_EWALD  F
         DISPERSION  T
         &PARAMETER
           PARAM_FILE_PATH /usr/share/cp2k/DFTB/scc
           PARAM_FILE_NAME scc_parameter
           UFF_FORCE_FIELD uff_table
         &END PARAMETER
       &END DFTB
     &END QS
     &MGRID
       CUTOFF     5.0000000000000000E+02
     &END MGRID
     &PRINT
       &MOMENTS  SILENT
         FILENAME =IR-DFTB-bulk-dipole.traj
         PERIODIC  F
         MAX_MOMENT  1
         &EACH
           MD  1
         &END EACH
       &END MOMENTS
     &END PRINT
   &END DFT
   &SUBSYS
     &CELL
       A     1.2000000000000000E+01    0.0000000000000000E+00    0.0000000000000000E+00
       B     0.0000000000000000E+00    1.2000000000000000E+01    0.0000000000000000E+00
       C     0.0000000000000000E+00    0.0000000000000000E+00    1.2000000000000000E+01
       PERIODIC  NONE
       MULTIPLE_UNIT_CELL  1 1 1
     &END CELL
     &COORD
O    3.2125964985997568E-02    7.1262713358116581E-01   -1.3157658547125610E+00
H    7.0020116498773610E-01    9.9356744216186077E-01   -6.0217183619106451E-01
H   -4.4408937579850333E-01    3.4641233311877954E-02   -7.7679314738934646E-01
O   -9.8447892518798305E-02   -7.8499057376097803E-01   -3.7572461124996419E+00
H    5.6809965252779304E-01   -3.9822109028585873E-01   -4.3605906572227182E+00
H    6.4015767159001438E-02   -3.1005715121834415E-01   -2.8702738280772149E+00
O    2.2278174945721152E+00    1.2594327146727322E+00    2.3487565747323982E-01
H    2.7704555074750399E+00    5.3669925713403910E-01   -2.4572170401838422E-01
H    2.0661020772438770E+00    9.2261085895308415E-01    1.1115858223349222E+00
O    3.0929904734322231E+00   -1.2225787572148999E-01   -1.8889454411009674E+00
H    2.8901673956651930E+00    5.7431132900160520E-01   -2.6090225715026856E+00
H    2.4981715973985388E+00   -8.5380107133250904E-01   -2.0237258495883230E+00
O    6.3054612920574957E+00   -6.0285666224625090E-01   -5.4545370903925627E-01
H    6.8524715315004858E+00   -1.2219574971834548E+00   -8.9327472894579225E-03
H    5.4336637039781204E+00   -5.9032674845119049E-01   -1.5686177580990893E-01
O    5.5784538280423082E+00   -1.2713073492403113E+00   -3.0237202090371929E+00
H    4.8231936064231817E+00   -1.2039389977883583E+00   -2.3402097725352875E+00
H    6.1841324204107835E+00   -6.2527279097026756E-01   -2.6237734585868666E+00
O   -4.8149725368352714E-01    3.7017133034821890E+00    4.7806219048783954E-01
H   -2.3019051102880422E-01    3.0701291589938711E+00   -2.2044869475167023E-01
H    1.9898145014000248E-02    3.3768089238585288E+00    1.3737302599282648E+00
O   -3.0099413018882831E-01    2.6422762051214965E+00   -3.3682414871672677E+00
H   -8.3718440745205713E-01    2.8137484014185956E+00   -4.1340492231476631E+00
H   -8.7812453676136792E-01    2.2385463801813490E+00   -2.6796920545577039E+00
O    6.0941514545310306E-02    6.3654703880831915E+00   -2.8316545055157560E-01
H    9.9148388928283970E-01    6.6820649292607985E+00   -2.9274413631360421E-02
H   -7.2564926175507126E-03    5.3684690793730683E+00   -9.1314024561253246E-02
O   -5.2701222787978941E-01    6.7053120265034920E+00   -3.2710384689759855E+00
H   -9.1797286581922144E-01    7.5754371324986574E+00   -3.3673324817372849E+00
H   -8.8637783787783697E-01    6.0760409011653094E+00   -2.5961738898786839E+00
O    4.0674019821775129E+00    3.4586092396478922E+00   -3.8003368135559318E-01
H    4.9612860357783033E+00    3.1231340455735359E+00   -5.9485511253216805E-01
H    3.6369028305388387E+00    2.8194757425222523E+00    1.9231304204903629E-01
O    2.6229248018621449E+00    2.3068349995269695E+00   -3.1942032919031691E+00
H    1.9992179165571822E+00    2.8778925903711636E+00   -3.6312562891493863E+00
H    2.9423260814559753E+00    2.7834258087203407E+00   -2.4257619221966977E+00
O    6.5327962697720432E+00    2.1525025529191870E+00   -8.0670475027550415E-01
H    7.2391708145069682E+00    2.5587420349301695E+00   -2.3657551913386432E-01
H    6.6217769656980385E+00    1.1635695790637079E+00   -6.8786043581813205E-01
O    6.7461975819928508E+00    2.5207502601476257E+00   -3.6647743118396039E+00
H    7.0554362930234040E+00    3.3832323168341070E+00   -3.3647563876234186E+00
H    6.7298501424184254E+00    2.1300419365407675E+00   -2.7481182419070880E+00
O    2.8794482266909531E+00    5.9059579604986325E+00   -1.7551607296036750E-01
H    3.7851750861852844E+00    6.2826937259051148E+00   -1.2423355009018520E-01
H    3.0395952817355107E+00    4.9370045320476095E+00   -3.6822629931709333E-01
O    2.2947653086551392E+00    7.1865208598458130E+00   -2.6595477036607877E+00
H    1.4430842312559471E+00    6.7440593515680378E+00   -2.8875355244735701E+00
H    2.3582948031969058E+00    6.9187737149780064E+00   -1.7154430918022054E+00
O    6.8181266015694719E+00    5.3548378892884392E+00    1.0449519690438378E+00
H    7.7816632355295319E+00    5.3392915611327698E+00    7.7927128934280898E-01
H    6.7618731194340365E+00    5.4424173290050453E+00    2.0337311229611128E+00
O    6.9625837852514927E+00    4.8112038636684833E+00   -2.0041882274446023E+00
H    6.7760161838962158E+00    5.7523002971046706E+00   -2.2162185740531579E+00
H    6.5150436654674255E+00    4.6226347750980530E+00   -1.1455313694981077E+00
O    2.6484975615100731E-01    6.6307112165765147E-01    3.9943963851268180E+00
H   -1.2644288052037830E-01    1.4270610746828050E+00    3.5376213335293891E+00
H    1.1121286471566534E+00    3.9479205700782660E-01    3.4917463467925076E+00
O    2.8669643562994240E+00    1.7739523547653566E-01    2.7380737600110816E+00
H    3.1766238289336055E+00    9.4518422967797810E-01    3.3676735412911993E+00
H    3.5232555932582459E+00   -5.4461620967855240E-01    2.8557495524651735E+00
O    5.9551488578817064E+00   -4.8387134259296299E-01    4.0779114658100406E+00
H    6.3332517458629427E+00    2.9707093781082156E-01    3.6899001101161697E+00
H    5.9866341682015287E+00   -3.2641521543385893E-01    5.0272782814598518E+00
O    7.4101941637926150E-01    3.4083079941265906E+00    2.9718582164949581E+00
H    3.5616507282754162E-01    4.3308593633390604E+00    3.0653987355940386E+00
H    1.6222365866399160E+00    3.4758372973706315E+00    3.4625264004381489E+00
O   -1.2069339118514837E-01    5.8023904901690235E+00    4.3975824959402212E+00
H    1.5236007693814209E-02    6.7186689726600086E+00    4.0278178924044967E+00
H   -4.6840398407326367E-01    5.9777175848019253E+00    5.2777105036537320E+00
O    3.3157532893911483E+00    2.6364599474642447E+00    3.7890921413912797E+00
H    3.3541477714429200E+00    2.8701317481547743E+00    4.8107602996093792E+00
H    4.2607717727374359E+00    2.5921882597212225E+00    3.4937460353044822E+00
O    6.0330315150152014E+00    2.4696530645557346E+00    3.7541233699942342E+00
H    6.1451617218322259E+00    3.4778753431935545E+00    3.5594882829769636E+00
H    6.2075152411374068E+00    2.6209767801869002E+00    4.6633238435029902E+00
O    2.5972737104296479E+00    5.5220963610797549E+00    5.1460133255765337E+00
H    1.8815890177674601E+00    4.8357267480166160E+00    5.0501592379431477E+00
H    2.1575269665246881E+00    6.2663798179280468E+00    5.6086156744644722E+00
O    6.8010070593933003E+00    5.2740046620549981E+00    3.8199590724823791E+00
H    6.1397800975711361E+00    5.9933365386929180E+00    4.0474767114209476E+00
H    7.6193506763966239E+00    5.4221328261120227E+00    4.3217156387522122E+00
O    8.4367055090573793E+00    8.4925647198060048E+00    2.4436610532036326E-01
H    8.7183851553607337E+00    7.5168927944505688E+00    2.0387244364992443E-01
H    8.2412003597183681E+00    8.7269007675314505E+00    1.2072498757130163E+00
O    8.6729074818188785E+00    8.2499329246114694E+00    3.0750882508789519E+00
H    9.3762481730515521E+00    8.9025328728896191E+00    3.2796804729239533E+00
H    7.8256534569331127E+00    8.7535386260736114E+00    3.2734849639519301E+00
O    4.0628400375933431E+00    7.7028540347965491E+00    3.1373745222280611E+00
H    4.7305405476475793E+00    8.3307160940121090E+00    3.5273527994917844E+00
H    3.5666808444470792E+00    7.3774849867617975E+00    3.9074263072301036E+00
O    5.2491197087153800E+00    6.0902437855273623E+00    5.9328075563971572E+00
H    5.1006842900772300E+00    6.9234387506916972E+00    6.4069106119115622E+00
H    4.3802946630983497E+00    5.8344025549059690E+00    5.4639235217366577E+00
O    5.0456679856214688E+00    7.4408781131519435E+00    5.2471563538266441E-01
H    5.8057162877191635E+00    6.8338419418700163E+00    6.0486351804244698E-01
H    4.6540109013036792E+00    7.5069417006398549E+00    1.3970351620597323E+00
     &END COORD
     &VELOCITY
           1.4721084727456425E-04   -3.2307657710218326E-04    1.5224366866244264E-05
          -4.9032576446816716E-04    3.2915493826767581E-04   -2.1880076260876886E-04
           1.9719166863312753E-04    6.4124373433496426E-04    4.8675154549629977E-04
           5.1867190039391671E-04   -2.1633513421704184E-04    1.4536763210876584E-04
           4.5726635064616999E-04   -1.0031354913459572E-03    6.2391179724981976E-04
          -1.3509076060481344E-04   -5.2558074383764392E-04   -4.7869677445567713E-05
          -1.1404998890194650E-04    1.3983735344114391E-05    3.3663086158688038E-04
           1.2638133484641630E-03    8.3583582598818307E-04    9.9890430420856774E-04
          -4.9650352959736187E-04    6.7782854606642765E-04   -3.0650013171977026E-04
          -1.1847703675207443E-04    1.3986616505679871E-04   -3.2088371736777580E-04
           8.1825351425645493E-04    1.8833423762144646E-03   -8.4868819279427393E-04
           7.4806358511457689E-04    9.7952126972054355E-04   -2.1593208323794194E-04
           1.4045985600223587E-04    3.5231939503045682E-05    4.6639515928891375E-04
          -1.5052717931962813E-03   -4.0831934648173315E-04    4.6320868202174653E-04
           1.0299688997517300E-03    7.4834497724888746E-04   -4.6137382192257476E-04
           2.8014680759426419E-04   -1.1520048667550787E-04   -3.6393835549995338E-04
           2.2161276747017142E-03    5.4081766499210497E-04   -2.0409639964452157E-04
          -1.5552088615450371E-03    1.5604778634077324E-04   -1.6100622285599982E-03
           9.9352210463925849E-05   -7.3013168868563678E-05    1.5762718965684330E-05
          -2.5521936083627118E-04    1.3125090836177687E-04   -1.2108180505319289E-03
          -6.0314811129047040E-04    2.5212028594475441E-04   -8.2963762986483502E-04
          -1.9990375842467557E-04    4.2612425909505050E-05   -4.2137931691682341E-05
          -2.1446634195656950E-04    9.0215047325670254E-05   -2.4379331576541505E-04
          -1.1011158445398627E-03    1.4405564957688803E-03   -1.6618672647765557E-03
          -2.4026393417189172E-04    2.7971908373824621E-04    1.2121892753483391E-07
           2.5347181252815436E-04    2.8969728881371649E-04   -2.3683592425933217E-04
           1.5958230469512137E-04   -9.2481683112171200E-04    2.7574515968321580E-04
          -1.0658338961858995E-04    6.6081195798523167E-05   -1.9238422516001445E-05
          -1.8955529522654752E-04   -1.4185604164872194E-03    8.6624008699550596E-04
           4.9312326225462789E-04    4.0663889316193267E-04   -1.6139207236454126E-04
           3.4727455108798034E-05    2.5532917163735976E-04    2.3995285322426195E-04
          -1.3504110164999444E-03    7.6450978350387440E-05    2.7543752983532580E-04
           6.7257855849246371E-04    2.4708076549104300E-04   -2.8806472421156261E-04
           1.4673358059938025E-04   -2.7185857502489064E-04   -1.4713593228191925E-05
           8.6548759904524339E-04   -3.2566211134085917E-04    1.6680380646154211E-04
          -7.4289131453764785E-04    4.7103020110782356E-05   -7.6980282597394829E-04
          -2.5592221357076476E-04    3.1803675199086861E-04    1.3450418922308257E-04
          -5.3645230988751233E-04    3.4146468709638183E-04   -1.6207001183545259E-04
          -3.6793754196257392E-05    5.5915085438267757E-04   -5.2794786771225791E-04
          -1.8325169691171394E-04   -1.5495061335382698E-04   -2.0920378468752197E-04
          -4.0461936659122021E-04   -1.2869668073584143E-03   -1.3259184852973276E-03
          -1.2671341942266559E-03   -1.6512245613326391E-04   -4.6116535760666393E-04
          -1.3886461275093771E-04   -3.4079079164529440E-04    2.7570415388940967E-04
          -1.6610687276038145E-04    2.1804025373374419E-04   -2.0599056546348495E-04
          -2.4356836276130824E-04   -8.5020270958937889E-04   -2.3288851176666097E-04
          -5.4991442245278880E-05    1.0190814668146460E-04   -4.9438133171427119E-04
           8.9623177176480294E-04    1.9228663127519345E-04   -1.3220717689243413E-03
          -5.6947962526161797E-06    1.4074677637909913E-03   -1.5368397398591823E-03
           5.8253116002924347E-05   -3.4601482539383738E-04   -8.9670350914851905E-05
          -6.7974495310986320E-04    3.0735005372014911E-04    4.6775054684040272E-04
           6.8312063153937327E-04   -2.5657487423298388E-04   -5.0840216097242390E-04
           1.6538831872900785E-04    2.7990461179282510E-04    3.1770347491204227E-04
           1.4791952421586640E-03   -4.0468973369176523E-04    1.5717236076586468E-03
          -2.4429696037800062E-04    2.7174217076962766E-04   -1.4198807588623895E-04
          -2.8912918449753146E-04   -4.4938011679684728E-05   -2.5946631319641512E-04
          -6.2399809101109098E-04   -1.8686554183615730E-04   -4.2229498228483028E-04
          -1.2590852340591215E-03   -7.7778552625810710E-04    2.2787141791325960E-04
           5.1111780823921758E-04   -3.9745162865407758E-04    2.2326989791503557E-04
          -7.5544231517632140E-05   -5.4289010953209463E-04    1.9655547398005147E-04
          -6.3704195491444979E-04    7.7258869149968536E-04    1.5419186232090370E-04
          -9.6668082970820823E-05    1.4671966552076492E-04    1.6953244486098221E-04
          -5.3248715579543397E-05   -9.8756659917828560E-04    4.1499959636346370E-04
           3.3035718574195655E-05    8.0473154668819012E-05   -5.2624107915434691E-04
           1.9562328959884913E-04   -2.3866267636822743E-04    2.4333571860805166E-04
           6.2218300629961285E-04   -1.4108383155095536E-03   -5.7335459167364604E-04
          -1.7762543694532315E-04   -6.0851973471933156E-04   -4.0832794744124644E-04
          -9.3279226099731872E-05    3.3520020501273819E-04    4.7489534992073423E-04
          -2.6001683888037273E-04    5.0223551608878550E-04    1.3171463096752134E-03
          -7.0674286991369718E-04    7.9462096176441822E-04   -1.7948525924213409E-03
           1.3723524067610484E-04    2.0113093816305892E-04   -1.1265416149927239E-04
           1.0974563612559563E-03    9.1883719266320769E-04   -3.6948277479111687E-04
           2.7573587009496890E-05    1.5604911857495534E-04   -1.3376392699075831E-04
           2.3599413818877529E-04   -2.3764990534125348E-04    1.5732570905607515E-04
           8.9038427308340434E-04    1.6353843021107013E-04   -1.2807603659557431E-04
          -3.0934457615086993E-04    2.4171887788290616E-04   -6.0237389713824890E-04
          -2.1593781313454890E-04   -2.5212982387551498E-04   -1.4285495443262133E-05
           1.1126019928946261E-03    2.0278755108139824E-04    8.9813488289913540E-04
          -1.5849124310591809E-03   -1.1909959939801259E-03   -8.5108905371193613E-04
           1.4358510674267170E-04   -3.8756283753992762E-05   -2.1058205691639391E-05
           6.6806872512763878E-04    4.9507431879966621E-04   -4.2263100786552017E-04
          -8.4986176564559135E-04    9.8753119669460379E-04    4.5224225384631999E-04
          -2.9028371022103233E-04   -1.3761911713565667E-05   -4.4635475733229729E-04
          -1.0711168380194206E-03    7.7240448248631953E-04   -1.3381519118907989E-04
          -4.9988483766990200E-04    5.6197336672071294E-04   -1.0767063726994713E-03
          -1.6131743416690584E-04   -4.8164138277065486E-05    2.9021515136728429E-04
          -1.4459903441913166E-03   -4.6042689788751157E-04    3.8116092546139617E-04
           8.2440073920947063E-04    1.3981650500045253E-03    3.2996375947080001E-04
           1.5693034326780901E-04    6.9980398471160147E-06    5.2016621140559276E-04
          -6.0232559976776076E-04   -1.1560137981852771E-04   -7.5159942962607293E-04
          -2.7825099641071128E-04    2.2885163840938092E-07   -8.6469689718433559E-05
          -7.8473928363894201E-05    1.0240132267947212E-04   -2.5324316457440234E-04
           2.1212026845112265E-04   -1.1132801152123747E-03    1.9478658842855861E-05
          -1.7790813143538577E-04   -5.2863988431047946E-04    1.1804592451203630E-04
          -5.6956829610927462E-05    4.3171556431176322E-04   -5.4185857782563910E-04
          -2.2665312714473666E-04    5.1098178766509925E-04    9.5500244477445819E-04
           9.4374625873699881E-04   -4.8734192298592914E-04   -7.0345492418718691E-04
     &END VELOCITY
     &TOPOLOGY
       COORD_FILE_NAME ./IR-32W.xyz
       COORD_FILE_FORMAT  XYZ
       NUMBER_OF_ATOMS  96
       MULTIPLE_UNIT_CELL  1 1 1
     &END TOPOLOGY
   &END SUBSYS
 &END FORCE_EVAL
