 # Version information for this restart file 
 # current date 2015-03-26 13:28:45.425
 # current working dir /home/lokt/ownCloud/LOKT.02.048/Excercise4_18Mar2015_IR
 # Program compiled at                              Sun Dec 22 03:52:45 UTC 2013
 # Program compiled on                                                   komainu
 # Program compiled for                                    Linux-x86_64-gfortran
 # Source code revision number                                             12993
 &GLOBAL
   EXTENDED_FFT_LENGTHS  T
   PRINT_LEVEL  LOW
   PROJECT_NAME WATER
   RUN_TYPE  MD
   WALLTIME     8.6000000000000000E+04
 &END GLOBAL
 &MOTION
   &MD
     ENSEMBLE  NVE
     STEPS  5000
     TIMESTEP     4.9999999999999994E-01
     STEP_START_VAL  1500
     TIME_START_VAL     7.5000000000000762E+02
     ECONS_START_VAL    -1.3005078063699807E+02
     TEMPERATURE     3.0000000000000000E+02
     &AVERAGES  T
       &RESTART_AVERAGES
         ITIMES_START  1
         AVECPU     1.3940359999999996E+00
         AVEHUGONIOT     0.0000000000000000E+00
         AVETEMP_BARO     0.0000000000000000E+00
         AVEPOT    -1.3021048700787352E+02
         AVEKIN     1.5916501443994532E-01
         AVETEMP     3.5645586094497150E+02
         AVEKIN_QM     0.0000000000000000E+00
         AVETEMP_QM     0.0000000000000000E+00
         AVEVOL     1.1661122159579605E+04
         AVECELL_A     2.2676713594628229E+01
         AVECELL_B     2.2676713594628229E+01
         AVECELL_C     2.2676713594628229E+01
         AVEALPHA     9.0000000000000014E+01
         AVEBETA     9.0000000000000014E+01
         AVEGAMMA     9.0000000000000014E+01
         AVE_ECONS    -1.7806067456900045E+00
         AVE_PRESS     0.0000000000000000E+00
         AVE_PXX     0.0000000000000000E+00
       &END RESTART_AVERAGES
     &END AVERAGES
     &PRINT
       &ENERGY  SILENT
         &EACH
           MD  20
         &END EACH
       &END ENERGY
       &PROGRAM_RUN_INFO  SILENT
         &EACH
           MD  20
         &END EACH
       &END PROGRAM_RUN_INFO
     &END PRINT
   &END MD
 &END MOTION
 &FORCE_EVAL
   METHOD  QS
   &DFT
     &SCF
       MAX_SCF  2000
       EPS_SCF     2.9999999999999999E-07
       SCF_GUESS  ATOMIC
       &OT  T
         MINIMIZER  CG
         PRECONDITIONER  FULL_SINGLE_INVERSE
       &END OT
     &END SCF
     &QS
       METHOD  DFTB
       &DFTB
         SELF_CONSISTENT  T
         ORTHOGONAL_BASIS  F
         DO_EWALD  F
         DISPERSION  T
         &PARAMETER
           PARAM_FILE_PATH /usr/share/cp2k/scc
           PARAM_FILE_NAME scc_parameter
           UFF_FORCE_FIELD uff_table
         &END PARAMETER
       &END DFTB
     &END QS
     &MGRID
       CUTOFF     5.0000000000000000E+02
     &END MGRID
     &PRINT
       &MOMENTS  SILENT
         FILENAME =IR-DFTB-bulk-dipole.traj
         PERIODIC  F
         MAX_MOMENT  1
         &EACH
           MD  1
         &END EACH
       &END MOMENTS
     &END PRINT
   &END DFT
   &SUBSYS
     &CELL
       A     1.2000000000000000E+01    0.0000000000000000E+00    0.0000000000000000E+00
       B     0.0000000000000000E+00    1.2000000000000000E+01    0.0000000000000000E+00
       C     0.0000000000000000E+00    0.0000000000000000E+00    1.2000000000000000E+01
       PERIODIC  NONE
       MULTIPLE_UNIT_CELL  1 1 1
     &END CELL
     &COORD
O   -6.3051361585064816E-02   -6.3902142200508061E-01    4.7419926953673003E-01
H   -7.1254202807133030E-02    2.8071341712343939E-01    2.8587014684680656E-01
H   -9.0473925504634822E-01   -8.5399925989699055E-01    8.5726143375130859E-01
O    8.4039243837335835E+00   -3.5792640350446887E+00   -3.1958269854914931E+00
H    7.9107640205627376E+00   -2.7869291605706774E+00   -3.4834572029206159E+00
H    7.8288755996909734E+00   -4.0535900327802930E+00   -2.6131115666506344E+00
O    3.9718431612703120E+00    2.0378223941807732E+00    1.2198189458455182E+00
H    4.8047469111637557E+00    2.4228101795000567E+00    1.6710163366111410E+00
H    3.4091222583296599E+00    2.7960132888212366E+00    9.7127904203670745E-01
O    6.7887995376114834E+00    1.1336962783999113E-01   -3.6750488692394128E+00
H    5.8504507930070151E+00    1.3447781558001515E-01   -3.9105405310829284E+00
H    7.2841201413308765E+00    5.7251176352553990E-01   -4.4215457412973009E+00
O    5.3829410848054104E+00    4.4905480480186430E-02    3.5962872973278039E+00
H    6.2655620539052368E+00    1.0573249059341019E-01    4.0141392808909808E+00
H    5.4998306352759130E+00    8.9014956596751821E-02    2.6002040521586598E+00
O    6.8406276250126625E+00   -1.5311352225534438E+00   -6.7428224985758085E+00
H    6.8526471232026367E+00   -2.4318526742535527E+00   -6.4244066151283095E+00
H    7.5064575731668306E+00   -1.1671689444608981E+00   -6.2368919968136467E+00
O    1.2918899056130217E+00    2.7569954100108283E+00   -1.1750081511234822E+00
H    1.2051376093800277E+00    3.7368148084752195E+00   -1.4994789846528294E+00
H    1.1199681624897009E+00    2.6541928249497677E+00   -2.2353518561003063E-01
O    2.0927770860921895E-02    4.9907825767437499E+00   -2.6938240479224036E+00
H   -9.2920230629067979E-01    4.7269761856064747E+00   -2.7871803832193391E+00
H    3.8701487082118313E-01    4.6724541396247439E+00   -3.5344584083378781E+00
O   -3.7213228569963412E+00    6.2478325721659891E+00    3.8388987477072350E-01
H   -4.2913677443535008E+00    5.4342662766011198E+00    6.2575343939415251E-01
H   -3.2632666758437745E+00    6.5227170691228125E+00    1.2603525659645860E+00
O    5.1189112006115600E-01    8.5068636448048398E+00   -2.6830471021868969E+00
H    1.0903660839324201E+00    8.5804794622842380E+00   -3.4936550076504025E+00
H   -1.1326277127267555E-01    7.7344643307922132E+00   -2.7618837646984908E+00
O    2.5995887358802365E+00    4.6061844443285560E+00    1.5492192566423293E+00
H    3.1239524903181244E+00    5.1123401205284473E+00    2.2085272611059215E+00
H    2.5835345124248819E+00    5.1822806001200981E+00    7.6645725928704145E-01
O    1.9780409569695028E+00    3.4785348632156423E+00   -4.2758642082203488E+00
H    2.3087478642545434E+00    2.9981639626272805E+00   -5.0598863264964065E+00
H    2.7045221620863908E+00    3.4235119627717694E+00   -3.6158981413027846E+00
O    6.9120313896737322E+00    3.4461856167312059E+00   -3.2553720750953246E+00
H    7.5257270060229207E+00    4.0775456196306736E+00   -3.5810360108652444E+00
H    6.3825866978523615E+00    3.9003032121888244E+00   -2.5892364632417926E+00
O    3.6435603623056787E+00   -8.0877241487802098E-01   -4.3073370791129966E+00
H    3.0996445678757225E+00   -1.5223659355190178E+00   -4.6608557314719157E+00
H    3.3633279084490941E+00   -6.4391143933328066E-01   -3.4159217085200799E+00
O   -6.6887075144551511E-01    6.9193900670827668E+00    2.1264787512561778E+00
H    1.2403417002847425E-01    6.8328278219598815E+00    1.6054437166378812E+00
H   -4.5196894351305672E-01    7.2336896044861501E+00    3.0357769028230139E+00
O    9.1599692701556401E-01    7.8976733122710820E+00   -1.0351885575865481E+01
H    1.1315728523898878E+00    7.1937670522471473E+00   -1.1003382066423743E+01
H    1.0334706944879641E+00    8.7968315995642392E+00   -1.0815250817992030E+01
O    6.1236785214751608E+00    5.4533252233768232E+00   -2.7820289134740084E-01
H    6.8015633649084997E+00    5.2712189896415280E+00    3.9215180153565182E-01
H    5.2535263923815601E+00    5.2519357776360822E+00    1.7365806657940738E-01
O    8.0553103502368657E+00    6.1872246376523616E+00   -4.3314836578806748E+00
H    8.0666407646146894E+00    7.0156125298197587E+00   -3.7888635949613936E+00
H    7.9603268336569446E+00    6.4939265946331721E+00   -5.2525884249253361E+00
O   -4.7963293849691464E+00   -2.3942575447398098E+00    8.2423216241080222E-01
H   -5.4932495684957594E+00   -1.8452491924104604E+00    4.2984967686146325E-01
H   -4.4536148532639617E+00   -2.8899601655580542E+00    1.2536308563497872E-01
O    5.9916663023857470E+00   -4.3353476691291135E+00    6.3002100662979972E+00
H    6.7906724698136216E+00   -4.1881627508865744E+00    5.6569206372484873E+00
H    5.3052819386657850E+00   -3.6838956316463247E+00    6.0969469645029299E+00
O    6.8668300560034439E+00    1.6763227709411952E+00    8.0155631600451400E+00
H    6.6554690237325200E+00    1.0903213294741296E+00    7.2412121572530630E+00
H    6.6178984358560369E+00    1.2069065167237167E+00    8.8341467148772193E+00
O    3.0163499302702984E-01    2.6081278024423908E+00    1.7182389509700902E+00
H    1.1236692080687651E+00    2.6119899257479888E+00    2.1422847570410255E+00
H   -1.5378775612961373E-01    3.4351818117924915E+00    1.8994967848096656E+00
O   -5.0615919330122328E+00    1.0762142869263585E+01    7.6331658369206217E+00
H   -4.4182683355492225E+00    1.0978482820071958E+01    8.2943633497918849E+00
H   -5.7566432495924591E+00    1.1487966964418357E+01    7.6001910142976792E+00
O    5.6048391784059648E+00    4.4464585547280464E+00    5.1668864986286733E+00
H    6.2011553013139258E+00    3.8603400807027475E+00    5.6341462598837397E+00
H    5.7054618961358816E+00    5.2635299683852672E+00    5.6361675034603813E+00
O    1.1298924989072077E+01    2.1355311265217525E+00    4.3471550861091686E+00
H    1.2230737684058203E+01    2.3139069441914484E+00    4.6857217226836028E+00
H    1.0971788266661463E+01    2.9847944316724360E+00    4.4648591185830906E+00
O    2.9032267285598023E+00    3.7682263007429690E+00    5.1149546248466127E+00
H    3.8808803518016326E+00    3.8534458267944833E+00    5.1533545241626397E+00
H    2.7318640002445194E+00    3.3740778739662547E+00    4.2178065803750568E+00
O    8.2735897639697189E+00    4.0518591058213858E+00    7.2291311408907690E+00
H    7.7404276319248622E+00    3.5620524221444660E+00    7.8323832657673558E+00
H    8.5971898810437288E+00    3.2845986134405960E+00    6.7222189565422434E+00
O    6.7955258258512066E+00    1.1257029994387123E+01   -6.3616145574537555E+00
H    7.1530122472646882E+00    1.1838533790601840E+01   -7.0219400682371633E+00
H    5.8520566899237885E+00    1.1372434850795932E+01   -6.4115116629242195E+00
O    4.9475027014916177E+00    6.9058086678541635E+00    7.1383382920511327E+00
H    4.6085366414766700E+00    7.3666261920922640E+00    6.3063041767674859E+00
H    4.3918131101623770E+00    7.2639655704673372E+00    7.8478645471657531E+00
O    5.0139394566238362E+00    6.6107864862801238E+00    2.0060388615543716E+00
H    4.4545458074598896E+00    7.4316800970699175E+00    1.8802077956707230E+00
H    5.9377467420536654E+00    6.7866082407651858E+00    2.3195735370800947E+00
O    5.3811889907672983E+00    4.1464741235773372E+00    8.6751751143719016E+00
H    4.8286408476673470E+00    3.9371247159104397E+00    7.9193786425518562E+00
H    5.0087748327465995E+00    4.8793440358682192E+00    9.0960270613946754E+00
O    2.4460508857631238E+00    7.7696595987218355E+00   -1.6895350699455478E-01
H    2.9824796403056157E+00    7.8535052759259711E+00   -9.7553487502177949E-01
H    1.5775216841535695E+00    7.5495389374949378E+00   -5.5734527948010504E-01
     &END COORD
     &VELOCITY
           7.9345450836394713E-05    1.9510255876171775E-04    1.8664001634554960E-04
           6.1849856327500182E-04    2.4664060940059206E-04   -1.2049785880246374E-03
          -2.9410550562217354E-04   -1.5082157490464180E-03   -2.5196154807204812E-04
           5.9965342853221396E-04    1.9447939623398747E-05   -1.5857810702346299E-05
          -1.0506562202966829E-03    8.8096149603719866E-05   -8.4266230335852167E-04
           5.1561666402746321E-04   -4.5147533878072625E-04    6.2351720097893518E-04
           2.0309243871400223E-04    3.0243096678342686E-06    7.3778184891870691E-05
           1.7620854088532025E-04   -4.8701882640646952E-05   -7.0826999663515914E-04
           1.7929993803799020E-04    6.9314384825686743E-04    1.4542627932534480E-04
           4.9609813193695188E-05   -1.6240983858312712E-04   -1.9655826947630479E-04
           1.6193046520556532E-03    1.3398702748969569E-03    8.4990014057589273E-04
          -8.3983899033092271E-04    1.2081317361960931E-03   -1.7152559271117970E-03
          -2.1882484416736788E-04    1.2337913826279570E-04    4.9527149415920353E-05
          -5.6911863341336491E-04    6.8972379248425882E-04    7.6382078682588712E-04
          -7.7309918672395901E-05    5.3930970897173621E-04    8.8724335499595691E-04
          -2.0164622323167925E-05    2.9660414994345387E-05    1.3083412708766995E-04
          -8.0926413088462082E-04   -7.8439259506264691E-04   -1.1343507406357323E-03
           6.7879501935230074E-04    1.1661144438447342E-03   -1.1949525932600550E-03
           2.1384443570335855E-04   -6.5429149578151921E-05    3.5729899584778735E-05
          -4.7844767072363376E-04   -1.1750252418742180E-03    9.0983598178417122E-04
           3.5257557298816651E-04    1.4953071514889034E-04   -1.8373007000044904E-03
           1.0767487661081479E-04    1.8121339540505912E-04   -9.2124846401203100E-05
          -1.8263621861034431E-04    1.1034491577903473E-04    1.6083031739939479E-03
          -6.8116471181294740E-04    1.3625115640923096E-03    6.6651402132791068E-04
          -1.5679550244217184E-04   -8.3404948013312508E-05   -1.6402717891050530E-05
           6.7780422264820906E-04    5.7253753428906018E-04   -4.9429509595575404E-07
          -5.4069732917213403E-04    1.1547230911683316E-04    2.4996146769613295E-04
           2.6826817901161586E-04    2.3989550742055813E-04    3.0357505567063606E-04
          -5.9239642833903853E-04   -6.7340723945480060E-04    3.1212057588894253E-04
           6.4527706306691517E-04   -9.9862066524179327E-04   -9.6462424846437351E-04
           1.0354502572927707E-04    4.1989987059383624E-05    9.0945987863841907E-05
          -4.0983995397750767E-04   -4.4515814946077928E-04    2.7931614239050499E-05
          -9.0672727787329292E-04   -3.0267954763353767E-04    8.9685396938347234E-04
           1.9235504630330679E-04    1.0207832847235246E-04   -1.9163513320601542E-04
          -1.6423913652101093E-03   -7.4516398084039325E-04    7.9716276966163555E-04
          -4.7413746861991264E-04   -3.7786431677268995E-04    1.8888735346324389E-04
          -1.6267483906305829E-04   -1.2443143902999610E-04   -2.6774793393033805E-04
           2.7446245030602782E-04   -6.5596339116845426E-04    1.7776853425516224E-04
           4.5610947353330497E-04    5.0397616273959128E-04   -8.6653140002312425E-04
           9.4734441356140391E-06   -2.0603759865105723E-04    2.8219740700654298E-04
          -3.7067353382668774E-04   -8.7524624880396494E-04   -1.3635689034703358E-03
           1.2748072051972635E-03   -9.2408672942888866E-06    1.6189860126748643E-04
          -1.9884906503275557E-04   -6.9592026512250681E-05   -3.0856930025929157E-05
          -5.0531887308955534E-04   -1.2549470796857345E-03    7.2438394165825841E-04
           8.4517431713284998E-05    1.3393222949706086E-04    1.7800546855017038E-05
          -9.8030526994059131E-05    2.1856953426521227E-05   -4.9361253338875758E-04
          -2.9990009163701972E-04   -7.2750319157812771E-04    8.6605815737253640E-04
          -7.9019405224980586E-04    3.0108040284329714E-04   -1.7389121692304335E-04
           9.1630105500123112E-05   -3.2937115956543588E-05   -1.4219828936820389E-04
          -9.0018322297205308E-04    6.9495272436993942E-05   -4.3586652744862436E-04
           2.8811549183549749E-04   -7.9976470480014653E-04   -1.0185022272658864E-03
           5.3467797918163957E-05    2.5730664400267314E-04   -1.7990630808414272E-04
          -6.6190065936347429E-04   -1.0038163623861014E-03   -3.1387629826297496E-04
          -1.4623921263739373E-06    2.0895175500015877E-04   -7.9891515877685565E-05
          -2.1908632846556037E-04   -8.2376147320591367E-05   -1.5914053852188594E-04
          -1.9056220514774533E-05   -1.2754387347789957E-03   -4.3018810595345659E-04
          -3.7449876250570128E-04    9.7585008068679048E-05   -2.2547754031668719E-04
           2.0966202463923314E-04   -6.8834838908734010E-05    2.3009232462243326E-04
           7.3881163332967692E-04   -5.1746518854957715E-04   -7.8421307602182715E-04
           8.3874290552595073E-04   -7.0319435427056512E-04    2.0300846174161341E-04
           2.5579421760647430E-05    2.5084124631874786E-04    2.2159208477709434E-04
           3.2984154240607984E-04   -3.9562282481112867E-04   -6.5356520519611384E-04
          -3.4306093276660946E-04   -2.1132365118422297E-04    5.6036071611031925E-04
          -9.0944102990290269E-06    7.0505842907162447E-05    1.2360055405932318E-04
          -8.7015555988251541E-04   -8.0110878138733410E-04    6.3195522838294072E-04
           3.7777871205137739E-04    2.6606521722421798E-05   -6.2474930318679096E-04
          -3.1350800184822724E-04    2.9927258528411030E-04    2.5909806882176711E-04
           5.7470976317264711E-04   -1.0451036224577970E-03    2.1508926309765880E-04
          -8.7641714620190583E-04    1.3119106304651392E-03   -1.1595181216632810E-03
           2.4652597513665159E-04    1.1804405521311607E-04    8.3160576409563279E-05
           1.1541060946574427E-03   -1.2750378080711394E-03    1.1586298635427826E-03
          -5.8289280331084471E-04   -1.2743862470896504E-03   -2.0656178005078884E-04
           1.3986415263416558E-04   -1.0174366934884610E-04    6.6879600605776045E-05
          -4.7990122820448496E-04    1.6471610964865369E-03    2.3896054288051396E-04
           1.0383066588487268E-03   -3.8575044306115528E-05    2.6691163763317303E-04
           1.1226299391708037E-04   -1.5484610716939333E-04   -1.3214482445314909E-04
          -1.0660365987885006E-03    5.5358282441233782E-04   -1.1285146261468382E-04
          -1.1594254261342795E-03   -3.7760519444231244E-04   -5.4939980991578212E-04
           1.9244056006710136E-04   -9.4183153251096589E-05    1.4971624080731662E-04
           6.7653765661034406E-04   -5.2194484415297310E-04   -3.5611036769810566E-04
          -2.1811351042370103E-04   -3.4572147415525386E-04    2.1400457092861660E-05
          -2.0167484353326359E-07   -3.1319613730566972E-06   -3.2829090499814166E-04
           1.0235361287105888E-04    1.7268311620269102E-03   -7.6559643140335066E-04
          -1.5562674886743059E-03    1.5717825816775256E-04   -6.8875006099419604E-04
          -2.2289063131868890E-04   -2.0375204939192021E-04    2.0479473583274183E-04
          -9.5238854740019871E-04    1.1262242709721357E-03    3.1756374759209108E-04
          -1.2033416506093643E-03    1.1159371629379596E-03   -4.1316913361792555E-04
          -9.2918999289435169E-05   -1.1114750788139811E-04    5.0687991389506815E-05
          -7.2268189106269279E-04    2.1745642717005382E-04   -1.6031632646687575E-04
          -1.7598807931881987E-04   -2.6713116827098220E-04   -1.0194976666702205E-04
          -1.7753503058143871E-04   -1.1533015755851205E-04    1.2865173552206044E-04
          -2.7560802002178051E-04    3.8826708663817388E-04   -8.0829681891246812E-04
           3.0020437076758833E-04    2.6713746704025340E-05   -7.7742904405534818E-04
          -3.1277748193274228E-04   -6.6100996410149140E-05    1.7159892532750970E-04
          -1.4915502948349758E-03   -5.2469984840703538E-04   -7.3233755721137796E-04
           4.4187598380484639E-04    1.2166756300870446E-03   -3.0223430967408512E-04
     &END VELOCITY
     &TOPOLOGY
       COORD_FILE_NAME ./IR-32W.xyz
       COORD_FILE_FORMAT  XYZ
       NUMBER_OF_ATOMS  96
       MULTIPLE_UNIT_CELL  1 1 1
     &END TOPOLOGY
   &END SUBSYS
 &END FORCE_EVAL
