 # Version information for this restart file 
 # current date 2018-03-24 08:33:15.544
 # current working dir /home/user/LOKT.02.048/week5/IR
 # Program compiled at                              Sat Aug  5 09:59:49 UTC 2017
 # Program compiled on                                                  lgw01-13
 # Program compiled for                                    Linux-x86_64-gfortran
 # Source code revision number                                         svn:17462
 &GLOBAL
   EXTENDED_FFT_LENGTHS  T
   PRINT_LEVEL  LOW
   PROJECT_NAME WATER
   RUN_TYPE  MD
   WALLTIME 86000
 &END GLOBAL
 &MOTION
   &MD
     ENSEMBLE  NVE
     STEPS  100
     TIMESTEP     4.9999999999999994E-01
     STEP_START_VAL  100
     TIME_START_VAL     5.0000000000000036E+01
     ECONS_START_VAL    -1.3005078063362490E+02
     TEMPERATURE     3.0000000000000000E+02
     &AVERAGES  T
       &RESTART_AVERAGES
         ITIMES_START  1
         AVECPU     2.9517510782700267E+00
         AVEHUGONIOT     0.0000000000000000E+00
         AVETEMP_BARO     0.0000000000000000E+00
         AVEPOT    -1.3023734425597016E+02
         AVEKIN     1.8602907256552784E-01
         AVETEMP     4.1661889992262957E+02
         AVEKIN_QM     0.0000000000000000E+00
         AVETEMP_QM     0.0000000000000000E+00
         AVEVOL     1.1661122159579532E+04
         AVECELL_A     2.2676713594627717E+01
         AVECELL_B     2.2676713594627717E+01
         AVECELL_C     2.2676713594627717E+01
         AVEALPHA     8.9999999999999972E+01
         AVEBETA     8.9999999999999972E+01
         AVEGAMMA     8.9999999999999972E+01
         AVE_ECONS    -1.7569943205311498E+00
         AVE_PRESS     0.0000000000000000E+00
         AVE_PXX     0.0000000000000000E+00
       &END RESTART_AVERAGES
     &END AVERAGES
     &PRINT
       &ENERGY  SILENT
         &EACH
           MD  20
         &END EACH
       &END ENERGY
       &PROGRAM_RUN_INFO  SILENT
         &EACH
           MD  20
         &END EACH
       &END PROGRAM_RUN_INFO
     &END PRINT
   &END MD
 &END MOTION
 &FORCE_EVAL
   METHOD  QS
   &DFT
     &SCF
       MAX_SCF  2000
       EPS_SCF     2.9999999999999999E-07
       SCF_GUESS  ATOMIC
       &OT  T
         MINIMIZER  CG
         PRECONDITIONER  FULL_SINGLE_INVERSE
       &END OT
     &END SCF
     &QS
       METHOD  DFTB
       &DFTB
         SELF_CONSISTENT  T
         ORTHOGONAL_BASIS  F
         DO_EWALD  F
         DISPERSION  T
         &PARAMETER
           PARAM_FILE_PATH /usr/share/cp2k/DFTB/scc
           PARAM_FILE_NAME scc_parameter
           UFF_FORCE_FIELD uff_table
         &END PARAMETER
       &END DFTB
     &END QS
     &MGRID
       CUTOFF     5.0000000000000000E+02
     &END MGRID
     &PRINT
       &MOMENTS  SILENT
         FILENAME =IR-DFTB-bulk-dipole.traj
         PERIODIC  F
         MAX_MOMENT  1
         &EACH
           MD  1
         &END EACH
       &END MOMENTS
     &END PRINT
   &END DFT
   &SUBSYS
     &CELL
       A     1.2000000000000000E+01    0.0000000000000000E+00    0.0000000000000000E+00
       B     0.0000000000000000E+00    1.2000000000000000E+01    0.0000000000000000E+00
       C     0.0000000000000000E+00    0.0000000000000000E+00    1.2000000000000000E+01
       PERIODIC  NONE
       MULTIPLE_UNIT_CELL  1 1 1
     &END CELL
     &COORD
O    6.1288633869752460E-02    4.9931933473787077E-01   -1.2600164839720682E+00
H    9.5155624062218258E-01    8.5521214705924120E-01   -1.1370734200984103E+00
H   -4.1560544322221887E-01    4.3641967953666871E-01   -4.2275110434058999E-01
O    2.3270687573869880E-01   -9.6782058136417914E-01   -3.6727819531326351E+00
H    1.0372267043421730E+00   -6.9268396826817846E-01   -4.1430936910261051E+00
H   -2.6687267331103656E-02   -3.0015877547349817E-01   -3.0397915022052184E+00
O    2.1847519416586914E+00    1.3377677392538390E+00    4.8854348521465907E-01
H    2.7311383599089112E+00    8.5576924864466897E-01   -1.1732100872962216E-01
H    2.2695427204853864E+00    8.9290953344408064E-01    1.3771653846697778E+00
O    3.1278556175587107E+00   -8.4741093250745345E-02   -2.0654139152064737E+00
H    3.3007551319610804E+00    7.9839787501258386E-01   -2.4803125063565452E+00
H    2.3300206216650006E+00   -5.4178321269710539E-01   -2.4974879710815694E+00
O    6.3923882551852884E+00   -5.6621057958240539E-01   -1.6047984090162223E-01
H    6.3967281390358641E+00   -1.4872441870148703E+00   -3.3223523984080940E-02
H    5.4870180432184821E+00   -3.7744352675371179E-01   -4.2458400912174615E-01
O    5.7744509267034276E+00   -1.3277581113822816E+00   -3.2875533927735470E+00
H    5.0645522759139885E+00   -1.0659722192994161E+00   -2.7712065326634097E+00
H    5.8795606402335121E+00   -7.5307923644534425E-01   -4.0507163507503501E+00
O   -4.4915744354774162E-01    3.6368388341257476E+00    4.0385673159354057E-01
H   -2.6259351508703288E-01    3.2277532411572625E+00   -5.1295182889783708E-01
H    1.0491962117453074E-01    3.2458094959342740E+00    1.0827555101171698E+00
O   -4.6225958284425184E-01    2.7235314131431902E+00   -3.4533930482462076E+00
H   -6.2223639866095326E-01    2.9530329793505863E+00   -4.3737089530955844E+00
H   -1.3465957551541397E+00    2.6403892503502888E+00   -3.1034084680574456E+00
O   -8.0245729560251597E-02    6.5309876140668193E+00   -2.7191379541300659E-01
H    9.2383640467822492E-01    6.4082742453927848E+00   -3.0760188658417598E-01
H   -3.6094261921624560E-01    5.6125057146565958E+00    1.6085994544638563E-01
O   -6.1869474304111571E-01    6.6743056901482829E+00   -3.2802023094965684E+00
H   -9.6830150440356189E-01    7.5107966875859953E+00   -2.9605275491509895E+00
H   -3.1233037721788237E-01    6.4159682053177356E+00   -2.4378648716297913E+00
O    4.0728161979521325E+00    3.5284250527504839E+00   -2.2177027985450501E-01
H    4.7633443827334476E+00    3.0327583235820503E+00   -6.2385420438085593E-01
H    3.4378721504838468E+00    2.8731575879686599E+00    7.2333939541991965E-02
O    2.7405502183882775E+00    2.2462161908178575E+00   -3.2337497136187840E+00
H    1.8842549988941064E+00    2.2546731769470383E+00   -3.6811236732248225E+00
H    2.6974152461488554E+00    3.0124818425212343E+00   -2.6650911885308792E+00
O    6.3982350534886239E+00    2.3127114355657015E+00   -6.9950131551105277E-01
H    7.1587904330955672E+00    2.7954633487570919E+00   -3.8444580184541954E-01
H    6.6485559010676170E+00    1.3987229023070029E+00   -8.6878682461218382E-01
O    6.6116507441149839E+00    2.3672873979504678E+00   -3.8320801158632980E+00
H    6.9496992981033783E+00    3.2581067208928438E+00   -3.9111384579740212E+00
H    5.8974536384998224E+00    2.2294043305141900E+00   -3.2719638884304181E+00
O    2.7015556547794826E+00    5.7761710489486724E+00   -5.3063723998531048E-03
H    3.4150171643370353E+00    6.4723071520750333E+00   -6.2039345256169977E-02
H    3.0348401105019427E+00    4.9448424744481594E+00   -3.9591983530394537E-01
O    2.3128025268410117E+00    7.2912137244321489E+00   -3.0608046012963452E+00
H    1.5183347699599625E+00    7.0818621924945662E+00   -3.5023059732829815E+00
H    2.2772171410311759E+00    7.2695383960926971E+00   -2.1236664673924022E+00
O    6.8876175566352336E+00    5.1423017078040782E+00    9.7355257615577018E-01
H    7.7951885872036284E+00    5.3042266591656189E+00    7.6671414689582162E-01
H    6.9285436408264767E+00    5.0183450234128015E+00    1.9332208549476193E+00
O    7.1002327235203264E+00    5.0170460948825042E+00   -1.7874439326394236E+00
H    7.4172232303308325E+00    5.9032312299319569E+00   -1.6464284087144265E+00
H    6.2200595240966940E+00    5.0262200713745200E+00   -1.4722868623639678E+00
O    1.8594114435733163E-02    6.0314671502667228E-01    3.8513802555876748E+00
H    6.4445165351916772E-02    1.4712814765894024E+00    3.3889824088518616E+00
H    5.6113201940077184E-01   -2.4720162415446515E-03    3.3846443449234895E+00
O    3.1415114305312848E+00   -8.9484512855906459E-02    2.8658637241978253E+00
H    3.0853441092821305E+00    6.5333648170945724E-01    3.4570556466913969E+00
H    3.8351942702077109E+00   -6.8297684297329120E-01    3.2144249149383195E+00
O    5.8668681726657166E+00   -4.3603979233667961E-01    4.1667080401315237E+00
H    6.3106664886636388E+00    2.6084193011680101E-01    3.6837251201263577E+00
H    6.0530605542374722E+00   -3.2579523093801582E-01    5.0843674215442221E+00
O    7.9520364168039404E-01    3.2217146285415414E+00    3.0682367349969524E+00
H    7.7221822736489421E-01    4.0820920987816747E+00    3.4568110450575960E+00
H    1.6776844010459979E+00    2.9972632365882173E+00    2.7971332085123684E+00
O   -2.0876290450399676E-01    6.1162596632629347E+00    4.7095099930966287E+00
H   -1.5152924521749220E-01    6.6784141782326065E+00    3.9797502762978154E+00
H   -1.0861192552077215E+00    5.7021475309231882E+00    4.7173992193570333E+00
O    3.4784387201857379E+00    2.7928496911851344E+00    3.7820916674135034E+00
H    3.8609055386676534E+00    3.1451328373969272E+00    4.5563074289353525E+00
H    4.2346359663553272E+00    2.8454190959119008E+00    3.1035248756827527E+00
O    6.2318344116663420E+00    2.4124904640071709E+00    3.8345374848435831E+00
H    6.8546166267068847E+00    2.9240336908676161E+00    3.3474342839433473E+00
H    6.1796183038614547E+00    2.5389149165015086E+00    4.8410981765320420E+00
O    2.4426720293580546E+00    5.3896946169622693E+00    5.2042473514761314E+00
H    2.4207999153783817E+00    4.4510390131518962E+00    5.1592422162927116E+00
H    1.5478304413325834E+00    5.6660887712957138E+00    5.0052212562983751E+00
O    6.9128137637980140E+00    5.2898834356957627E+00    3.8064100714120146E+00
H    6.1159347047897645E+00    5.7328074750436091E+00    4.1008303187457171E+00
H    7.5357157681378979E+00    5.6543740953441581E+00    4.4657757327008776E+00
O    8.2481382968081842E+00    8.5167368980255880E+00   -8.8736454597639652E-02
H    8.1851974520779365E+00    7.6021204998104883E+00    7.6202208964761473E-02
H    7.8962293630147657E+00    8.9274643122444637E+00    6.7019925957204207E-01
O    8.5072334249018429E+00    8.2655690619315294E+00    3.2978935338369761E+00
H    9.4479443587246923E+00    8.4532322231963608E+00    3.4086009880171173E+00
H    8.0905337470541347E+00    9.0675237994178381E+00    3.5157663078107735E+00
O    4.1758037501297949E+00    7.6961683118081599E+00    3.4449830018880121E+00
H    4.3349417365577549E+00    8.5844642035790937E+00    3.7007540714502745E+00
H    3.4230254756801757E+00    7.3121346660174193E+00    3.8630639062036609E+00
O    5.1770211729038378E+00    6.1415817069504000E+00    5.7692105324218561E+00
H    5.2130646074422584E+00    6.5745100646957377E+00    6.6549501354776615E+00
H    4.3901187359240685E+00    5.5914772806200315E+00    5.7553561811600495E+00
O    5.0654783674515551E+00    7.7063463951695637E+00    2.0617606508379355E-01
H    5.6675587456658292E+00    6.9780962372487449E+00    3.7287123711895243E-01
H    4.5993240540066767E+00    7.7743457487667067E+00    1.0564327466896604E+00
     &END COORD
     &VELOCITY
           5.5523790198672199E-05   -2.1750957880042565E-04    2.1381050090822309E-04
          -6.4916393857041834E-04   -1.4870293077910170E-03   -1.2692668841792177E-03
          -1.0364368560504227E-05    2.4507212145484384E-04   -2.5376759604978842E-04
           4.8976112684981062E-04   -2.6881125010216276E-04    1.2601888263522786E-04
           2.0761778184389838E-04    5.9186747504464372E-05    5.5330951337817828E-04
           4.2503431998051872E-04   -8.9892673697324359E-04   -1.2941289656978735E-03
           5.6995282218930990E-05    1.6611008780337727E-04    3.8409277891523141E-04
          -1.7611746005480519E-03   -1.5339301912840157E-05    1.5565019056718214E-04
           7.4196137341917294E-04   -6.0820314511979821E-04    3.9216678827030125E-04
           2.9157592209797867E-04   -1.0087524842219320E-04   -9.0868047104685764E-05
          -1.5303070581610876E-04   -1.1699077127356578E-03    7.5697531468888989E-05
          -1.0984316985381219E-03    3.1903972953941639E-05   -1.0515912269267341E-03
           3.1863241255058428E-05    5.4267920267012314E-05    6.7634503956118198E-04
           5.3113274289559576E-04   -5.4296800823352216E-04   -4.9154925017576973E-04
          -2.1509146385384500E-05    3.5002974341942066E-04   -6.9818119139431888E-04
           1.8061468151228199E-04    1.5348867333636081E-04   -4.4419305674159515E-04
           8.0908713786586109E-04   -1.3070065207926075E-03   -8.6077022791223245E-04
           4.0238097307637195E-04   -2.4148089865070315E-03   -1.9682633543714910E-03
           7.6235148218677286E-05   -1.4529548959455827E-04   -1.9223840437559297E-04
           2.0577125067870576E-04    3.7132867007444778E-04    1.6728539232854888E-03
          -5.3947302377465223E-04    4.2415082030868549E-04   -1.6538045138736375E-03
          -2.2840179539103890E-04    1.8646233686511467E-04   -2.4122528138854308E-04
           9.9799938637727486E-04    1.6217666330070428E-04    3.3779913687818692E-05
          -1.2220477140690081E-03    4.7036318151418149E-05    4.5065117109439185E-04
          -1.8431465300933479E-04    1.8568139966970720E-04   -7.8809861585147042E-06
          -4.6856817967286056E-04   -7.7486339560042350E-04    2.2491889597450396E-04
          -8.0388575748497595E-04    1.2483113643945365E-03    2.5372657740221525E-04
          -1.2240003158172949E-04   -1.2183000243186492E-04    1.0841614875270023E-04
           5.3339616154154064E-06    2.8249295523128575E-04    2.6193305189715389E-04
           3.5726520686101318E-04    1.0214222875235077E-03   -6.3511445250724575E-04
          -5.8791813039855567E-05   -8.2769085026200822E-05    2.0304561804376941E-04
           3.4660247547065558E-04    4.6250366123199953E-05    6.2763308369889683E-04
          -3.3692511688295304E-04    3.5997520621535632E-04    4.0052898939562872E-05
           1.4835314545000143E-04    1.7983777243156746E-04   -1.7095039444892289E-04
          -6.5274007200006288E-04   -1.8034274018768398E-03    7.2361199705482654E-05
          -1.9012841907720788E-04    1.1979917326618091E-03   -1.1771010636986965E-04
          -9.3771580456943572E-05    7.9111348781593839E-05    1.4272964352522375E-04
          -3.8022732016024718E-04    4.2272704067423603E-04   -5.7783206085652644E-04
           1.6539621125940569E-04    1.1794805306256744E-03    2.5520925328151382E-04
          -2.6086479807186237E-04   -2.7087984547169419E-04   -2.2676870913946852E-04
           1.5283761444084747E-04    1.8663139970354742E-04   -8.1687034854663896E-04
          -7.0825994072458973E-04    5.0618801427112646E-04   -1.3589846871876119E-03
          -4.1119684607940468E-04   -1.5349777851149338E-06    1.9383969254695206E-04
          -6.1157285102377088E-04    2.2756652063703008E-04    4.5816973120856676E-04
           1.0485061044283373E-05    7.8370478463142220E-04    6.8603500209111438E-04
           4.6723953590501321E-05    1.3008744991669977E-04   -6.9541340347952993E-04
           3.2075151245664323E-04    1.2974779400506378E-03   -3.8687294675643276E-04
          -3.3352747482513187E-04    4.9190405249191461E-04   -2.7923215350583041E-04
           1.7179580212817779E-04   -2.8823704510725902E-04   -2.3512804857027669E-05
           6.6969027828121645E-05   -4.4474630487761853E-04   -1.7573373204576948E-04
          -4.2973905204440909E-04   -2.8279025986790329E-04   -1.2401916915723270E-03
           1.6701233446168450E-04    3.4992113607269608E-04    3.0861039936238042E-04
           8.9177694909438310E-04    4.1106546380486144E-04    3.8706023471865667E-04
           2.9145395159684007E-04    8.7990480723078800E-04   -1.0252306324143184E-03
          -4.3699223262202145E-04   -9.1966329184267430E-05   -2.1647885427889129E-04
           1.1040864939986512E-03   -1.0676802194913588E-03    5.9314088037248371E-04
          -7.1814478994768852E-04    3.1944186890281236E-05   -4.5925344617987209E-04
           3.7219443688367605E-04   -3.0042577964844243E-04    2.9167635610223200E-04
           1.1760417420053568E-04   -2.1375822950531818E-03   -1.2637008929907185E-03
           7.4106769421260134E-04   -4.9592008999894799E-05    4.6762575898140571E-04
          -1.7510966916438515E-04    3.8348569604469006E-06    1.0390449972731060E-04
          -1.8265323541808386E-04    6.8564996909231484E-04   -4.8182946680588618E-04
           2.3703499444689490E-04   -9.1579288517691995E-05    7.7324321803476999E-04
           1.0580592831220942E-04   -2.6367240373390157E-04    5.4532554383001676E-06
           9.0028728245815219E-04   -1.0142184029758717E-03    6.8536289215925946E-04
          -1.6307510868915636E-03    5.5379689079692266E-05    1.5014092427650181E-06
          -3.4708830772644720E-04    6.5004565619395597E-04    3.5132467535604379E-04
           1.0770320346866109E-03   -6.9428315220006925E-04    2.8580315661308584E-04
           1.5843841287274102E-04   -2.0627060370244474E-03   -2.0556538326549002E-05
           4.2407137625294936E-04    2.7364208116097133E-04   -3.3239734001520979E-05
           7.5216841659467171E-05   -4.5056357971368105E-04   -7.3657919090851969E-04
          -1.0539020004387458E-03    2.3226381383240462E-04    1.2508212172180811E-04
           4.9220882346573945E-04    2.6610939545378785E-05    1.0286479022603172E-04
          -3.1250743856988175E-04   -1.6078778077290884E-03   -1.8925979491998192E-04
          -4.8405417452043352E-04   -3.5968499378916384E-04    4.6996701009607996E-04
          -3.5735148118815155E-04   -2.3654361214166746E-04    1.2964816511333441E-04
           1.6147528501685964E-03   -6.8654185595795831E-04    2.8844926134132318E-04
           5.8986587992754550E-04   -4.2150800239461718E-04   -5.4846064278432421E-04
           1.5309876068148113E-04    7.0347735250751757E-05    3.8166508601028596E-05
           1.5151479578748184E-04   -1.3965419564135701E-03   -1.2823931248223019E-04
           5.7139366011874483E-04    9.1514746983383140E-05   -6.3526335143020824E-04
          -2.8446520897938357E-04    5.2664760473507221E-05   -4.6438121051094194E-04
          -8.6583414036286630E-04    7.1660471819694584E-04   -8.8074199220798682E-05
          -2.9587775738850077E-04   -5.5315152016408129E-04   -1.8515806229662433E-03
          -2.3858768414318997E-04    1.6903476056900264E-04    3.9008858742399066E-04
           3.9833286082445127E-04   -1.8721401745259659E-03   -2.6048370854890932E-04
          -2.6248434669128918E-04   -6.8060738270857020E-04    1.8307907906914901E-04
           1.8590890770912424E-04   -4.6479675849502787E-05    4.2878873449287119E-04
          -1.0941408035380058E-03    6.8525148313048798E-04    7.3562202500830230E-04
           3.6331066793557614E-04    8.6712086704823435E-05   -4.8125542357950284E-04
          -1.8701550726550541E-04    2.0146538220648781E-05   -1.9052304117105244E-04
           1.4033698290742390E-04   -6.3021580089911086E-04    3.1680188718628740E-04
           7.0404379416976045E-04    1.2727425850745438E-03    3.6610657412121947E-04
           5.7633110431267146E-05    2.8642406736106873E-04   -3.7882286121426051E-04
           6.2257744729614698E-05    8.4634020953592773E-05   -1.5301485732896044E-03
          -5.8637571994850683E-04    1.8116808924279930E-03   -1.1631780535721419E-04
     &END VELOCITY
     &TOPOLOGY
       COORD_FILE_NAME ./IR-32W.xyz
       COORD_FILE_FORMAT  XYZ
       NUMBER_OF_ATOMS  96
       MULTIPLE_UNIT_CELL  1 1 1
     &END TOPOLOGY
   &END SUBSYS
 &END FORCE_EVAL
