 # Version information for this restart file 
 # current date 2018-03-24 08:31:41.385
 # current working dir /home/user/LOKT.02.048/week5/IR
 # Program compiled at                              Sat Aug  5 09:59:49 UTC 2017
 # Program compiled on                                                  lgw01-13
 # Program compiled for                                    Linux-x86_64-gfortran
 # Source code revision number                                         svn:17462
 &GLOBAL
   EXTENDED_FFT_LENGTHS  T
   PRINT_LEVEL  LOW
   PROJECT_NAME WATER
   RUN_TYPE  MD
   WALLTIME 86000
 &END GLOBAL
 &MOTION
   &MD
     ENSEMBLE  NVE
     STEPS  100
     TIMESTEP     4.9999999999999994E-01
     STEP_START_VAL  60
     TIME_START_VAL     3.0000000000000018E+01
     ECONS_START_VAL    -1.3005078063362490E+02
     TEMPERATURE     3.0000000000000000E+02
     &AVERAGES  T
       &RESTART_AVERAGES
         ITIMES_START  1
         AVECPU     3.3504557232333649E+00
         AVEHUGONIOT     0.0000000000000000E+00
         AVETEMP_BARO     0.0000000000000000E+00
         AVEPOT    -1.3022668030185955E+02
         AVEKIN     1.7538126387803407E-01
         AVETEMP     3.9277274361602491E+02
         AVEKIN_QM     0.0000000000000000E+00
         AVETEMP_QM     0.0000000000000000E+00
         AVEVOL     1.1661122159579525E+04
         AVECELL_A     2.2676713594627682E+01
         AVECELL_B     2.2676713594627682E+01
         AVECELL_C     2.2676713594627682E+01
         AVEALPHA     8.9999999999999929E+01
         AVEBETA     8.9999999999999929E+01
         AVEGAMMA     8.9999999999999929E+01
         AVE_ECONS    -1.7030131626735132E+00
         AVE_PRESS     0.0000000000000000E+00
         AVE_PXX     0.0000000000000000E+00
       &END RESTART_AVERAGES
     &END AVERAGES
     &PRINT
       &ENERGY  SILENT
         &EACH
           MD  20
         &END EACH
       &END ENERGY
       &PROGRAM_RUN_INFO  SILENT
         &EACH
           MD  20
         &END EACH
       &END PROGRAM_RUN_INFO
     &END PRINT
   &END MD
 &END MOTION
 &FORCE_EVAL
   METHOD  QS
   &DFT
     &SCF
       MAX_SCF  2000
       EPS_SCF     2.9999999999999999E-07
       SCF_GUESS  ATOMIC
       &OT  T
         MINIMIZER  CG
         PRECONDITIONER  FULL_SINGLE_INVERSE
       &END OT
     &END SCF
     &QS
       METHOD  DFTB
       &DFTB
         SELF_CONSISTENT  T
         ORTHOGONAL_BASIS  F
         DO_EWALD  F
         DISPERSION  T
         &PARAMETER
           PARAM_FILE_PATH /usr/share/cp2k/DFTB/scc
           PARAM_FILE_NAME scc_parameter
           UFF_FORCE_FIELD uff_table
         &END PARAMETER
       &END DFTB
     &END QS
     &MGRID
       CUTOFF     5.0000000000000000E+02
     &END MGRID
     &PRINT
       &MOMENTS  SILENT
         FILENAME =IR-DFTB-bulk-dipole.traj
         PERIODIC  F
         MAX_MOMENT  1
         &EACH
           MD  1
         &END EACH
       &END MOMENTS
     &END PRINT
   &END DFT
   &SUBSYS
     &CELL
       A     1.2000000000000000E+01    0.0000000000000000E+00    0.0000000000000000E+00
       B     0.0000000000000000E+00    1.2000000000000000E+01    0.0000000000000000E+00
       C     0.0000000000000000E+00    0.0000000000000000E+00    1.2000000000000000E+01
       PERIODIC  NONE
       MULTIPLE_UNIT_CELL  1 1 1
     &END CELL
     &COORD
O    5.6973864813111050E-02    6.3607045880740309E-01   -1.2959187503963763E+00
H    7.6738539149749985E-01    1.1691949026117727E+00   -8.2265278712141610E-01
H   -5.3587222759780706E-01    1.1153626003245322E-01   -7.3083660162926023E-01
O    1.0661929851233962E-02   -8.4210486654686323E-01   -3.7265167728225430E+00
H    7.4393845820683835E-01   -5.3981683800148483E-01   -4.2807237568727752E+00
H    4.3677003815176647E-02   -3.2469605786622041E-01   -2.8583744863819036E+00
O    2.2025295569697265E+00    1.2716972465645153E+00    3.0768490856145075E-01
H    2.9762500602478763E+00    7.5268691013072397E-01   -6.4877964427574389E-02
H    2.0447727162130374E+00    9.7866177670531151E-01    1.1959104926133133E+00
O    3.0868908746833532E+00   -7.9637486820477429E-02   -1.9593410635783184E+00
H    3.0168728120061696E+00    7.2503789259956675E-01   -2.6032299695794729E+00
H    2.4556407181584001E+00   -7.0426231394417993E-01   -2.2445231499061138E+00
O    6.3435276228693107E+00   -5.9246354430216319E-01   -4.3568571131906092E-01
H    6.6177703226058746E+00   -1.3596340769832380E+00    8.0225354337239513E-02
H    5.4460001361104498E+00   -4.3532115573564972E-01   -2.0716500483354935E-01
O    5.6399755164741983E+00   -1.2933594259109358E+00   -3.1027442621045385E+00
H    4.9422689245876228E+00   -1.2544565345781897E+00   -2.4089044772806822E+00
H    6.1770836219607572E+00   -5.0923978214016397E-01   -3.1373352435006558E+00
O   -4.7084119686975212E-01    3.6869964157855186E+00    4.6108095690028622E-01
H   -2.5533113516391803E-01    3.1294934699042809E+00   -3.5631595999870685E-01
H    4.0044528164036697E-02    3.2882202502245108E+00    1.2778764088012298E+00
O   -3.5520694676232117E-01    2.6605071229045949E+00   -3.3903561001321210E+00
H   -7.5508201915730799E-01    2.8664754323283606E+00   -4.2504396116461889E+00
H   -1.0743760439349164E+00    2.4307432292553974E+00   -2.8223122126716005E+00
O    9.2856884044478279E-03    6.4200241879302302E+00   -2.7736948185234905E-01
H    9.8676907296398597E-01    6.6543229736678979E+00   -1.4153994109223861E-01
H    8.3437685753163394E-03    5.4054993357336683E+00   -4.9362309822224441E-02
O   -5.3871089209852530E-01    6.7035121732340537E+00   -3.2879458222359141E+00
H   -1.0829095129154380E+00    7.4514955027196033E+00   -3.1153102615606940E+00
H   -8.4657839182410299E-01    6.2086280995548924E+00   -2.4956113749719555E+00
O    4.0686216337610519E+00    3.5095333203810064E+00   -3.2552654080635585E-01
H    4.8763015922314077E+00    3.0987431385391377E+00   -6.4877411873867785E-01
H    3.6264321580331953E+00    2.8225899551768268E+00    1.7438837912211810E-01
O    2.6594781234280434E+00    2.2522798718612549E+00   -3.1969354591362631E+00
H    2.0369939515805986E+00    2.7511433910374077E+00   -3.7076676827638604E+00
H    2.8895821081067723E+00    2.8045946979860741E+00   -2.4668448750727601E+00
O    6.4764755403958443E+00    2.2213806388986517E+00   -7.7334086843607686E-01
H    7.2006201764776190E+00    2.6259176223880369E+00   -2.5229107935940437E-01
H    6.6225049610201649E+00    1.2370074486345861E+00   -7.9529377262180700E-01
O    6.7077941170694650E+00    2.4733875138708976E+00   -3.7140641011769540E+00
H    6.9902171301441935E+00    3.3562785266273689E+00   -3.6392515145073658E+00
H    6.3843667626346567E+00    2.0533980658144895E+00   -2.8911455001708104E+00
O    2.8424148542243763E+00    5.8323650090663834E+00   -1.1389515628876887E-01
H    3.6836197794394407E+00    6.3366745280604180E+00   -1.6425105051503966E-01
H    3.0114061067890403E+00    4.8902572193809357E+00   -4.1519118017900247E-01
O    2.2916387181527198E+00    7.2180433311553562E+00   -2.7843508340842393E+00
H    1.5199296916040153E+00    6.7824023521374537E+00   -3.1767532284521800E+00
H    2.3723115501806498E+00    7.1178240468248077E+00   -1.8455908939616470E+00
O    6.8325437175538379E+00    5.2786246638708603E+00    1.0226830696424012E+00
H    7.7699934129067767E+00    5.3926524367355100E+00    7.7863781445472546E-01
H    6.8518151799810294E+00    5.3279827499484487E+00    2.0166729834438697E+00
O    7.0055590130668914E+00    4.8719220755078974E+00   -1.9301798946258324E+00
H    7.0554869803510281E+00    5.8231450662028408E+00   -1.9696739034538000E+00
H    6.4008589390887902E+00    4.6697895643430636E+00   -1.1825584583626456E+00
O    1.8840332337823160E-01    6.5038038482427041E-01    3.9503380644659098E+00
H   -1.4776864254092936E-01    1.3959590351482667E+00    3.3938528258001917E+00
H    9.1809673320330454E-01    2.4485563009514788E-01    3.4193182632196186E+00
O    2.9639504959927199E+00    9.2292035347056975E-02    2.7800102840677603E+00
H    3.1498400619784257E+00    8.7514451561686157E-01    3.4305961196512396E+00
H    3.5919032836618925E+00   -5.9862844814324734E-01    2.9526335585950898E+00
O    5.9292538617063615E+00   -4.6180065030840367E-01    4.1113147626372371E+00
H    6.3708072241928022E+00    2.4008800236907318E-01    3.6772331504895384E+00
H    5.9900736097338259E+00   -3.2486193769036009E-01    5.0464198233347979E+00
O    7.7228608485383066E-01    3.3444244267410643E+00    3.0192708801486843E+00
H    4.2322090973934617E-01    4.2519773385930160E+00    3.0472736870951374E+00
H    1.7285511226433297E+00    3.2949922880182974E+00    3.3157774622477780E+00
O   -1.3910302053830165E-01    5.8926841688496623E+00    4.4978452710344579E+00
H    1.0502679154479130E-02    6.7706485740462590E+00    4.0687407640804709E+00
H   -7.7698561855051651E-01    5.9756682766270561E+00    5.1721290052913629E+00
O    3.3555702856454741E+00    2.6868119050237800E+00    3.7801071777066007E+00
H    3.5309548202305683E+00    3.0441632888358994E+00    4.7258768766306476E+00
H    4.2596755679708522E+00    2.6261623093351538E+00    3.3534379190441452E+00
O    6.0907791093745356E+00    2.4532546274299056E+00    3.7935649965185454E+00
H    6.3641343450389476E+00    3.2866893967136424E+00    3.2785761086515759E+00
H    6.1623798715857205E+00    2.4238387127142911E+00    4.7204808522045374E+00
O    2.5482453225394552E+00    5.4767428656575836E+00    5.1521530653851695E+00
H    2.0682627830611917E+00    4.6431187086543080E+00    5.1260836521987301E+00
H    1.8956638045717489E+00    6.1381759014197650E+00    5.4430853042050646E+00
O    6.8333731677323497E+00    5.2746616017067245E+00    3.8191375144911919E+00
H    6.1836609407973189E+00    6.0194302023821038E+00    3.9592402536559836E+00
H    7.5501454510369026E+00    5.5353043665407471E+00    4.4094535372810908E+00
O    8.3723718944330141E+00    8.5020251584931472E+00    1.3306564993622294E-01
H    8.5201889281680767E+00    7.5322934561855943E+00    2.1192193647453639E-01
H    8.1299518359008314E+00    8.7956318486306841E+00    1.0576446440117069E+00
O    8.6227120394921553E+00    8.2560807979855628E+00    3.1480833976862743E+00
H    9.4274167945462395E+00    8.7391059369464621E+00    3.3389418840527263E+00
H    7.8475615462601223E+00    8.8597003569966297E+00    3.3020035172534805E+00
O    4.0962504708152183E+00    7.6965953210586315E+00    3.2429097705610350E+00
H    4.6434297542507990E+00    8.4306799468409128E+00    3.5222763981874889E+00
H    3.4861923330580091E+00    7.3980638597300885E+00    3.9369800786664024E+00
O    5.2391111679782609E+00    6.1046561088829590E+00    5.8676982536414526E+00
H    5.0470015322665169E+00    6.8006846976227058E+00    6.4933357750200997E+00
H    4.3184971885673020E+00    5.7312041173858006E+00    5.6168887523108291E+00
O    5.0486047035392625E+00    7.5288315238412791E+00    4.1652778110167354E-01
H    5.8155604878393783E+00    6.9401665480244832E+00    5.3905569657837082E-01
H    4.6006789783832351E+00    7.5669351395177502E+00    1.2557730840586909E+00
     &END COORD
     &VELOCITY
           8.7642045118342546E-05   -3.4147313222029343E-04    1.1392858007976642E-04
          -1.2604417523313813E-04   -1.3068022542412261E-04   -1.3568368890506594E-03
           1.0709480826969457E-04    8.2001612775130261E-04    3.4324089936330846E-04
           5.0100306851498066E-04   -2.6051285487586553E-04    1.6767421211168383E-04
           5.7857777310654258E-04   -4.4735160561265450E-04    8.3528890693432463E-04
           1.7008023545601604E-04   -1.6211109860666341E-04   -1.0592300208063874E-03
          -7.5843824477325129E-05    9.5673701149692034E-05    3.1908634985105080E-04
          -2.2873798984190968E-04    1.0898102246823770E-03    1.0258159880858464E-03
           4.6261184211459727E-04   -1.9628142031423505E-04    6.8363727058255502E-04
           7.1170912393694083E-05    1.2299670298018898E-04   -2.2271703700501620E-04
          -4.2557450828771076E-05    5.7595445205779207E-04   -4.9825432628348922E-04
          -7.3446466797284706E-04    1.0161976575139601E-03   -1.7424799740483191E-03
           1.5287293601348528E-04   -1.2573979370697621E-06    6.1057973107766291E-04
          -1.0752759398653766E-03    2.1534519909980032E-04   -4.2644798751190199E-04
           3.1475411032750851E-04    6.3213251711463116E-04   -5.7756774418540543E-04
           2.5659840754239406E-04   -2.1081034467907847E-05   -2.5657047355478340E-04
           1.3833880712047963E-03   -3.7411607391041519E-04   -2.0581060097914390E-03
          -6.3027182371076784E-04   -7.0647634545449969E-04   -2.8996998852063353E-03
           6.3075991282317124E-05   -7.5682226379048426E-05    1.2891579698954137E-05
           3.1344589067065895E-04   -2.7971871026030205E-04   -6.3097521175950846E-04
          -4.5649282425481638E-04   -8.6452642602710659E-05   -2.1800760879065076E-03
          -3.6890731909407145E-04    8.7683384031255181E-05   -8.5756439541056408E-05
           9.8642479832500903E-04    4.3481603891425683E-04   -1.0187742945926429E-03
           4.5715034136431575E-04    8.3357577373761383E-04   -5.9054345417134898E-04
          -2.0673526206408058E-04    2.8817603433422862E-04    3.2082509555614617E-05
          -1.2537013010737512E-04    3.0872195191705835E-05   -7.0551446444500846E-04
          -5.6805867805312979E-04   -4.7122883526284394E-04    3.3064724211628502E-04
          -1.8687509714781410E-04   -4.4376759719227510E-06    3.5060205349117098E-05
           2.0029267029527959E-04   -7.4576231641751976E-04    3.8138712461381467E-04
           1.3755687395528746E-03    5.9582803768925283E-04   -5.3796810564848052E-04
           7.8290083224555080E-05    9.4073349819190371E-05    2.5278613248069700E-04
          -1.2208699120703004E-03    6.8628806894190238E-04   -2.1441337697023871E-04
          -4.9387135911004975E-04    5.1483127503628432E-04   -3.0507453709373913E-04
           1.7360046428823543E-04   -1.4014910451821779E-04    9.9883210784973533E-06
          -9.5771564388930463E-05   -1.2748410843418131E-03   -6.2999008009040239E-04
          -1.9495451860440716E-05   -3.4788937667743901E-04   -3.1516837377614632E-04
          -2.2325480898776462E-04    2.8912610446129883E-04    1.8293337290209853E-04
          -4.4298903451885568E-04   -2.2981571260548780E-04   -4.6242913196850539E-04
           1.3059766475027055E-04    8.2090760356561779E-04   -2.4638640046155749E-04
          -1.7623061370553952E-04   -2.7308641217385274E-04   -2.7919759123365211E-04
          -7.9851362112576447E-04   -6.0200357052543260E-04   -2.5005984551536878E-04
          -1.1188579879040251E-03    1.1159410427648362E-03   -1.0351336991695401E-03
          -2.6191693561319814E-04   -2.8300911850505237E-04    2.9144702654427098E-04
          -1.5297012143125464E-04    1.6080876751417848E-04   -2.1498967635282375E-04
           2.8841717399186227E-04    3.2586721129872914E-05   -2.4095213694977200E-04
           3.5047217804085523E-05    1.7456369326396542E-04   -6.0424809725812998E-04
           6.1895829852558638E-04    4.3754767200186181E-04    4.1773253721122543E-05
          -8.5922533377543885E-04    2.6510069254487295E-04   -1.5809924248657108E-03
           2.0046330311901560E-04   -3.2520793506381868E-04   -5.6025383180851862E-05
          -1.1929114116075346E-03   -3.3406742536046212E-05   -3.2386322147227116E-04
          -1.9568560573906456E-04   -8.4189213678419531E-04   -6.8446085470512624E-04
           1.7970325387643395E-04    3.6397158098676932E-04    3.8485071207552268E-04
           1.2196553325487961E-03   -6.1811997393813271E-04    8.9550746270151884E-04
          -1.9021616822171691E-04    3.4941619622921220E-04   -9.1791904188314106E-04
          -3.1339157993577393E-04   -1.1691496429737628E-04   -2.2073393692969510E-04
           3.0058578546963803E-04   -5.7072524379674799E-05   -7.4498170773427399E-04
          -1.8391680485945149E-03    8.2006754626285831E-05    2.0296394732186062E-04
           4.5658150418029567E-04   -3.9392792907264588E-04    2.2675324673834989E-04
          -1.7892691373636819E-04   -1.4051702301091722E-03   -4.9639175451175418E-04
          -4.1349335431273496E-05    4.6120159228405237E-04    6.2134687995555270E-04
          -1.2138420736430613E-04    1.0211572586648982E-04    1.6338513459731777E-04
           9.6148788173869380E-06   -3.4807447347300795E-04    1.4905070913862360E-04
           7.9880060908527029E-05   -1.8235341720576705E-05   -4.1563659429283049E-04
           1.1214423665862441E-04   -2.5932781975477925E-04    1.9930635156473206E-04
           1.3371002203030721E-03   -1.2164926834608819E-03    5.8863073727002415E-04
          -6.6924368820842051E-04   -4.1568145227039544E-04   -1.4219391790978547E-03
          -1.1071722628627957E-04    5.4574986166314415E-04    5.1471621110709895E-04
          -2.0761132831916259E-04   -9.6306482761845697E-04    1.5744941044608331E-06
          -1.1104644666557410E-03   -7.6197422447735696E-04   -1.3112763112584616E-03
           2.5478042086295931E-04    2.8010654362821549E-04    8.4923987447582617E-05
           1.7608208132720575E-04    1.3992175334678561E-04   -1.4127710216009751E-03
          -2.0746283053118929E-06    1.8087099103139250E-04   -1.0828627010361187E-03
           2.6797698174403390E-04   -4.8744642463864694E-05    7.7099693282091445E-05
           1.1134526503775639E-03   -1.3885191366480919E-03   -1.7059794137106880E-04
           1.4056181405642425E-04   -4.5745692018362230E-04    8.4776397829771245E-04
          -3.4874122938717848E-04   -2.5401430705519052E-04    8.2337343182103606E-05
           2.0108574899106875E-03    1.4131409773658843E-04   -2.9457525637615917E-06
          -3.8228619032583503E-04   -7.1017839825108175E-04   -1.0441101127553142E-03
           1.5031967083897619E-04    1.2113851657969626E-04    5.0089622271483535E-05
          -1.9254080436627695E-04   -9.9731554575529634E-04   -7.3510167882319562E-04
           1.6755767363858139E-04   -4.0466485441282342E-04    3.2701267644201355E-05
          -2.9498261817991232E-04   -1.6046135149951586E-05   -4.6599421095545602E-04
          -1.0856176712195304E-03    1.4942255405189049E-03   -5.4868012916052495E-05
          -2.1087503037473085E-04   -2.1019599895992180E-04   -1.5769370868187697E-03
          -2.3930090879108835E-04    1.8286789060623042E-04    3.9200488619063443E-04
           1.6038794690049845E-04   -2.0050605188559416E-03   -1.7971094714965853E-04
           1.9864077555541593E-04   -7.0340534491439895E-04   -9.0474536533996324E-05
           2.0218814559211490E-04   -1.2132133292314742E-05    4.4213627858853466E-04
          -1.5827730985588154E-03   -3.5926258411754020E-04    6.3512350418692476E-04
           1.5213407927187482E-04    7.1888483553423266E-04    2.5891574259262679E-04
          -8.2565000205747128E-05    6.5475555295482359E-05   -3.0133935914475996E-04
          -3.9373596780995055E-04   -8.4280017340353718E-04    2.6930713435389773E-04
           3.7794735903793757E-04   -9.3517488002553480E-05    1.1238232701085201E-03
           6.9109288080192573E-05    3.6167899241860025E-04   -3.9290815829119382E-04
           1.0233248426034953E-04    5.5108156892982949E-04   -1.5214393932287385E-03
          -1.0581670925679297E-03    9.7864073005347885E-04   -1.2483315939944262E-03
     &END VELOCITY
     &TOPOLOGY
       COORD_FILE_NAME ./IR-32W.xyz
       COORD_FILE_FORMAT  XYZ
       NUMBER_OF_ATOMS  96
       MULTIPLE_UNIT_CELL  1 1 1
     &END TOPOLOGY
   &END SUBSYS
 &END FORCE_EVAL
