 # Version information for this restart file 
 # current date 2018-03-24 08:32:26.809
 # current working dir /home/user/LOKT.02.048/week5/IR
 # Program compiled at                              Sat Aug  5 09:59:49 UTC 2017
 # Program compiled on                                                  lgw01-13
 # Program compiled for                                    Linux-x86_64-gfortran
 # Source code revision number                                         svn:17462
 &GLOBAL
   EXTENDED_FFT_LENGTHS  T
   PRINT_LEVEL  LOW
   PROJECT_NAME WATER
   RUN_TYPE  MD
   WALLTIME 86000
 &END GLOBAL
 &MOTION
   &MD
     ENSEMBLE  NVE
     STEPS  100
     TIMESTEP     4.9999999999999994E-01
     STEP_START_VAL  80
     TIME_START_VAL     4.0000000000000028E+01
     ECONS_START_VAL    -1.3005078063362490E+02
     TEMPERATURE     3.0000000000000000E+02
     &AVERAGES  T
       &RESTART_AVERAGES
         ITIMES_START  1
         AVECPU     3.0805805719995982E+00
         AVEHUGONIOT     0.0000000000000000E+00
         AVETEMP_BARO     0.0000000000000000E+00
         AVEPOT    -1.3023339244871593E+02
         AVEKIN     1.8208348568251925E-01
         AVETEMP     4.0778261404495208E+02
         AVEKIN_QM     0.0000000000000000E+00
         AVETEMP_QM     0.0000000000000000E+00
         AVEVOL     1.1661122159579529E+04
         AVECELL_A     2.2676713594627685E+01
         AVECELL_B     2.2676713594627685E+01
         AVECELL_C     2.2676713594627685E+01
         AVEALPHA     8.9999999999999943E+01
         AVEBETA     8.9999999999999943E+01
         AVEGAMMA     8.9999999999999943E+01
         AVE_ECONS    -1.7362058937121834E+00
         AVE_PRESS     0.0000000000000000E+00
         AVE_PXX     0.0000000000000000E+00
       &END RESTART_AVERAGES
     &END AVERAGES
     &PRINT
       &ENERGY  SILENT
         &EACH
           MD  20
         &END EACH
       &END ENERGY
       &PROGRAM_RUN_INFO  SILENT
         &EACH
           MD  20
         &END EACH
       &END PROGRAM_RUN_INFO
     &END PRINT
   &END MD
 &END MOTION
 &FORCE_EVAL
   METHOD  QS
   &DFT
     &SCF
       MAX_SCF  2000
       EPS_SCF     2.9999999999999999E-07
       SCF_GUESS  ATOMIC
       &OT  T
         MINIMIZER  CG
         PRECONDITIONER  FULL_SINGLE_INVERSE
       &END OT
     &END SCF
     &QS
       METHOD  DFTB
       &DFTB
         SELF_CONSISTENT  T
         ORTHOGONAL_BASIS  F
         DO_EWALD  F
         DISPERSION  T
         &PARAMETER
           PARAM_FILE_PATH /usr/share/cp2k/DFTB/scc
           PARAM_FILE_NAME scc_parameter
           UFF_FORCE_FIELD uff_table
         &END PARAMETER
       &END DFTB
     &END QS
     &MGRID
       CUTOFF     5.0000000000000000E+02
     &END MGRID
     &PRINT
       &MOMENTS  SILENT
         FILENAME =IR-DFTB-bulk-dipole.traj
         PERIODIC  F
         MAX_MOMENT  1
         &EACH
           MD  1
         &END EACH
       &END MOMENTS
     &END PRINT
   &END DFT
   &SUBSYS
     &CELL
       A     1.2000000000000000E+01    0.0000000000000000E+00    0.0000000000000000E+00
       B     0.0000000000000000E+00    1.2000000000000000E+01    0.0000000000000000E+00
       C     0.0000000000000000E+00    0.0000000000000000E+00    1.2000000000000000E+01
       PERIODIC  NONE
       MULTIPLE_UNIT_CELL  1 1 1
     &END CELL
     &COORD
O    6.1922543501934789E-02    5.5989621202227624E-01   -1.2935074789684959E+00
H    8.1774463268593067E-01    1.0717949706425336E+00   -8.9624037742466900E-01
H   -4.2211242749625016E-01    3.3432540112380532E-01   -4.7774161920374808E-01
O    1.1990500945577688E-01   -9.0573548663708847E-01   -3.6974327325756833E+00
H    9.1044623387112689E-01   -6.2287525277024669E-01   -4.1823346753733128E+00
H    3.5999550702167295E-02   -2.6873535266215293E-01   -2.9448618185588660E+00
O    2.1840145625613463E+00    1.3029234422614551E+00    3.9220506336973848E-01
H    2.9520199301137433E+00    8.5139272220045636E-01   -8.6792384764065107E-04
H    2.1706123441186569E+00    9.3827978139800694E-01    1.2962956226628857E+00
O    3.0985103151117808E+00   -6.5766383709072326E-02   -2.0185473683892559E+00
H    3.1266707833686196E+00    8.0242122559412365E-01   -2.5679391587650819E+00
H    2.3890925300290191E+00   -5.5622389847439635E-01   -2.4418105945046147E+00
O    6.3753531061179336E+00   -5.7955665865199968E-01   -3.0345485602642785E-01
H    6.4420417790649607E+00   -1.4425743369234629E+00    5.5292083947885248E-02
H    5.4500480176669592E+00   -3.7646148684781178E-01   -3.0815811461752035E-01
O    5.7148126976737972E+00   -1.3266920532128448E+00   -3.1916120972813959E+00
H    5.0078582002816354E+00   -1.0596211552193022E+00   -2.6156985138926574E+00
H    5.9461568087474195E+00   -4.8447114010350451E-01   -3.5796141986258534E+00
O   -4.6196091764402669E-01    3.6662245749643021E+00    4.3792598672197974E-01
H   -2.4918548404981111E-01    3.1681364404096732E+00   -4.4699534567644256E-01
H    9.3668458264256099E-02    3.2025459376232530E+00    1.1271606376086181E+00
O   -4.1468243099546148E-01    2.6885196817407033E+00   -3.4205299502451254E+00
H   -6.3832224405240823E-01    2.9186270858674948E+00   -4.3401028608252537E+00
H   -1.1968376779627232E+00    2.5535055215305369E+00   -2.9356569040002847E+00
O   -3.2676120425654147E-02    6.4735499411988737E+00   -2.6907818114959620E-01
H    9.5840189783318719E-01    6.6326819382895987E+00   -3.0000853362783980E-01
H   -2.1088740747462867E-01    5.4799236797561495E+00    2.3234812076078415E-02
O   -5.8413962709594769E-01    6.6982284389505278E+00   -3.2775893668665015E+00
H   -1.0344372858225341E+00    7.5111180352721121E+00   -3.1539237227969901E+00
H   -4.7423500212152025E-01    6.1579298003899980E+00   -2.5055760373462057E+00
O    4.0753832450748062E+00    3.5281513886404938E+00   -2.7017495933415442E-01
H    4.7926167449767512E+00    3.1068696726005331E+00   -7.1308650977096300E-01
H    3.5026825555538625E+00    2.8676575327916178E+00    1.2181125218743108E-01
O    2.7006116936813704E+00    2.2291512821795401E+00   -3.2065060781093173E+00
H    1.9790862611593310E+00    2.5110392228987095E+00   -3.7582662500895729E+00
H    2.8333264407357976E+00    2.8623704675802850E+00   -2.5229604323952013E+00
O    6.4274802175874637E+00    2.2781295394597887E+00   -7.3543987795596977E-01
H    7.2019532070771577E+00    2.6555892838020982E+00   -3.0356240106963955E-01
H    6.6541578667322243E+00    1.3242709073213486E+00   -8.4315972534070505E-01
O    6.6675382759885737E+00    2.4082748599161001E+00   -3.7877535091461945E+00
H    6.8547117244787437E+00    3.3180294239380990E+00   -3.6228220378971012E+00
H    6.1284867234232134E+00    2.3086067595880548E+00   -3.0027473288332822E+00
O    2.7775011717100697E+00    5.7880528639649054E+00   -5.2797098129202982E-02
H    3.5844093120964065E+00    6.3536425704437036E+00   -1.7319048492179323E-01
H    3.0753197215589818E+00    4.9276375939835830E+00   -4.5418369073805054E-01
O    2.3098328117225111E+00    7.2624292356972333E+00   -2.9271010744847823E+00
H    1.4945268644079392E+00    6.8484698042349956E+00   -3.2147439267283544E+00
H    2.2058704920018326E+00    7.1303703677711514E+00   -2.0052201609320250E+00
O    6.8632640838872065E+00    5.2079639440663348E+00    1.0017862561055360E+00
H    7.7456606175620131E+00    5.3789562508506696E+00    7.0200031194345602E-01
H    6.8439202064561959E+00    5.1414108207165583E+00    1.9841552157304703E+00
O    7.0529535928160252E+00    4.9438504356651816E+00   -1.8546150651174034E+00
H    7.2740546353229867E+00    5.8577638824173208E+00   -1.7903430891911332E+00
H    6.2758909143020452E+00    4.7914614478494091E+00   -1.3119225843793829E+00
O    1.0786222952566120E-01    6.3059847436981153E-01    3.9003530169738836E+00
H   -9.6784389178940847E-02    1.4354472081373493E+00    3.3507095889296257E+00
H    7.2478478081515474E-01    9.4797891810722568E-02    3.4103383264084126E+00
O    3.0527855463415565E+00    1.6740607355815139E-04    2.8184008387186013E+00
H    3.1386405356901088E+00    7.5544800651636257E-01    3.4747009701096139E+00
H    3.7054137401530833E+00   -6.2917216972396395E-01    3.1185525337177387E+00
O    5.8980569168825818E+00   -4.4770463787733550E-01    4.1392581044464727E+00
H    6.3805703854819757E+00    2.3729413759463219E-01    3.7077254624673417E+00
H    6.0329794959887382E+00   -2.9923126805436906E-01    5.0553487929773402E+00
O    7.8174360887841698E-01    3.2760845572721418E+00    3.0518099018855072E+00
H    6.5304933020888567E-01    4.2037145214398697E+00    3.2454840435965577E+00
H    1.7663671646847838E+00    3.1880951773724751E+00    3.0214340130216604E+00
O   -1.5505368435033148E-01    5.9935761086661090E+00    4.6113891473634183E+00
H   -1.7982483535180491E-01    6.7465256482068430E+00    4.0225172203109656E+00
H   -1.0618122574508546E+00    5.9557034813083884E+00    4.8794135575760782E+00
O    3.4126076317428415E+00    2.7405303779957055E+00    3.7839396234798901E+00
H    3.6831665680373176E+00    3.1325217822891851E+00    4.6324228282929472E+00
H    4.2431345814737975E+00    2.7236642035884939E+00    3.1954423946462618E+00
O    6.1404825533483676E+00    2.4162405550602393E+00    3.8047801646889869E+00
H    6.7132722628887240E+00    3.1620747790557533E+00    3.4879231070753289E+00
H    6.3161380731851526E+00    2.6241570468312516E+00    4.7543907251292366E+00
O    2.4982822374733051E+00    5.4337557073324376E+00    5.1740023866681666E+00
H    2.2447482345192675E+00    4.5377843722002558E+00    5.1277796987746118E+00
H    1.6542823128880335E+00    5.9216553583030498E+00    5.2219079315261698E+00
O    6.8718644343744222E+00    5.2905843157776236E+00    3.8188615200023075E+00
H    6.0974836136172934E+00    5.8656254325804937E+00    3.9340341416484499E+00
H    7.5727143792967508E+00    5.5161656938072836E+00    4.4505137444169138E+00
O    8.3084067399559114E+00    8.5081451731719167E+00    2.3153216236235043E-02
H    8.3535822601660144E+00    7.5672416074884490E+00    1.3431724449324406E-01
H    8.0252913344190144E+00    8.8835727992802269E+00    8.7259124394757592E-01
O    8.5670731924620931E+00    8.2615767779862672E+00    3.2233081870168863E+00
H    9.4485336751327473E+00    8.5807275955016955E+00    3.3773539502718033E+00
H    7.9361346483616932E+00    8.9710386536315649E+00    3.3929504587180155E+00
O    4.1373614668542968E+00    7.6904831073149875E+00    3.3370858344462895E+00
H    4.4401491921897698E+00    8.5051900693586422E+00    3.6841424236271423E+00
H    3.4573420177036960E+00    7.4616791720062805E+00    3.9855469935825369E+00
O    5.2125067421083910E+00    6.1237595278227257E+00    5.8110524465683744E+00
H    5.0998025765449482E+00    6.6880904787703228E+00    6.5866142441676336E+00
H    4.3610638889783715E+00    5.6013267350417442E+00    5.7350379536222738E+00
O    5.0582760153832469E+00    7.6206050280681046E+00    3.1139227602199171E-01
H    5.7708558182408529E+00    6.9773064643890175E+00    4.2079490624298427E-01
H    4.5374791927887435E+00    7.6507388787237041E+00    1.1119867553438645E+00
     &END COORD
     &VELOCITY
           1.0898917392208186E-05   -3.0845931656618301E-04    7.9809331334633620E-05
          -2.9478465373171181E-04   -1.3275487762736723E-03   -5.7297498636322956E-04
           1.0089948839388436E-03    1.1715542266339690E-03    5.6623701039487705E-04
           5.2850258267386719E-04   -2.1260294953627951E-04    1.8291911926290497E-04
           4.5626602419934911E-04   -6.0902642711500854E-04    2.6499144597317019E-04
          -2.8558797311994347E-04   -8.4259486292635440E-04   -1.3144872700613952E-03
           1.8944807243549621E-05    1.3372841098569871E-04    3.7229457099693654E-04
          -1.4443430073084905E-03    7.5175828005043753E-04   -2.1640900155455372E-05
           3.7744959416596298E-04   -3.1809330134948023E-04    1.0302012616686825E-03
           1.2265542900624565E-04    6.7081234174661640E-05   -2.6918204522064561E-04
           1.1237799540276070E-03    5.4113571115858194E-05    8.5168582868605676E-04
          -1.2072490441209572E-03   -7.9995862527075491E-04   -7.3365318471477561E-04
           1.6036071443660394E-04    4.4196565862411156E-05    6.4975675733498978E-04
          -8.9318695385704437E-04    2.2673296895193691E-04   -5.4888926599947830E-04
          -2.8134689155344508E-04   -9.0921870875206631E-05   -4.8552380629328005E-04
           2.8198751490515804E-04   -1.3415244904228267E-04   -3.7225532627021559E-04
           1.7559190481682575E-03    1.1369739592254843E-03   -2.4047006191994340E-03
          -1.7627836808544201E-03   -3.6886871412532502E-04   -1.3885084784597181E-03
           1.4769999120060250E-04   -2.1983558172113964E-04   -8.0234305159003174E-05
          -3.5640798072397858E-04    6.5224303718902068E-04   -1.9947699644020381E-04
          -1.0441810797549322E-03    1.1061025984865636E-03   -1.3840155814546944E-03
          -1.7021892758119662E-04    1.4592487718896228E-04   -1.3464011370000235E-04
          -3.0117654630013708E-04    8.4195411690480862E-05    4.4916335000410606E-05
          -1.2411557944221182E-03    5.8602600547040821E-04   -1.1476198725711567E-03
          -2.0678050341553812E-04    2.6923454366987841E-04    1.3525417999063133E-05
          -2.8158631047312503E-04   -6.5238270703109271E-04   -4.0373914797308888E-04
          -7.4720590840528386E-04    3.7264832954929904E-04    5.0139274133572428E-04
          -1.8378715420075349E-04   -1.3120597738570106E-04    8.0946580373751262E-05
           2.6181262031581374E-04    2.9387835152765846E-04    3.8956449822454762E-04
           1.2912978506847228E-03    1.3250291482282783E-03   -9.3786500709938094E-04
           3.8932997572473269E-05    3.9676322046770136E-05    2.2927140288172477E-04
          -8.7893747084419533E-04   -2.1840958890210490E-04    3.9430005078557289E-04
          -1.9081409917733890E-04    7.3904833413937000E-05   -4.9252449148774356E-04
           2.3006306905126207E-04   -7.1663506023655291E-05   -8.7694998526671616E-05
          -7.0538784364251937E-04   -7.4941493090237537E-04    8.6797306913771947E-05
          -7.5159468380578442E-04    9.6336132259032146E-04   -3.9402094945899149E-04
          -1.3094264372405076E-04    1.7616751391056227E-04    1.8788929788979787E-04
          -5.8327204039436691E-04    2.5985459598935803E-04   -5.7347238592425328E-04
          -2.6175441600600032E-04    1.0324805880122178E-03   -1.4473160270953112E-04
          -2.6605801354735606E-04   -2.6219271285752882E-04   -1.9345346362834110E-04
           1.0626535319845506E-04    2.1640945625126266E-04   -7.8919288618823898E-04
          -5.6034351689385241E-04    2.9819495694747807E-04   -1.9150887806614731E-03
          -3.1601253712450802E-04   -1.7136917656115531E-04    2.3294096368722404E-04
          -4.3256187196240227E-04    6.0958177732501175E-04    2.6907094414708722E-04
          -2.9093498031846699E-04    5.5783216917237909E-04    2.5595575328580253E-04
          -1.3443905682761219E-05    1.2825193840528925E-04   -6.0834507462528733E-04
           6.7701376624655142E-04    1.1544250190131304E-03   -8.3250647518784513E-04
           8.5621991478172945E-05    5.0821285577831482E-04   -9.1583179930888620E-04
           1.3780806449503727E-04   -3.1369120166930479E-04   -9.8443169832704370E-05
          -4.8281151024457010E-04   -3.3823847124322270E-04    5.7772338365941797E-04
           6.2538553580515892E-04   -6.2940594179033667E-04   -1.0956615689736056E-03
           1.8652210225279456E-04    3.1812298603519680E-04    3.5115123768058150E-04
           6.3138596516668132E-04    1.3764862082924726E-05    8.9754505873293824E-04
           2.5349663335286118E-04    1.2377391780940797E-03   -1.1776645515908901E-03
          -3.3307151882370248E-04   -1.1497976388373944E-04   -3.1104666630438736E-04
           3.3663285246413429E-04    1.4431427216224770E-06    4.7986813184838572E-04
          -1.5044402661979882E-03   -2.4888497878329302E-04    7.8091702086689524E-04
           4.2127025289621629E-04   -3.3098631290642778E-04    2.7640359647561027E-04
          -3.6681429935194647E-04   -1.9291506619807958E-03   -1.2332327759943006E-03
           4.9651885562790690E-04   -1.9678362677325007E-04    6.1938582357732154E-04
          -1.5998255954016334E-04    3.9109690318131442E-05    1.3537361059085950E-04
           1.0122484846620632E-04    3.3387463128326921E-04   -1.0680819976419669E-04
           1.9860312272230264E-04    3.5427429573158977E-05    5.5531937372805157E-05
           1.3317205020461570E-04   -2.2048939948783467E-04    1.2143203173787937E-04
           8.5979763779663835E-04   -1.3146832123627202E-03    8.6719537931700215E-04
          -1.5793172835155752E-03   -7.6108235314834754E-04   -1.3318946942799945E-03
          -6.1257100129947546E-05    5.3981010723297808E-04    4.7837445331858715E-04
          -1.2722237012689850E-03   -1.2800379374394769E-03    6.4104664380175078E-04
          -1.2732373431525177E-03    6.8240676351272430E-06   -1.7507337033373415E-03
           2.8739308061133899E-04    2.7272483896333485E-04    8.4888137904529434E-05
           6.8098014186880574E-04   -4.1577799000543667E-04   -1.9422091269716338E-03
           3.0471316430036890E-05    6.9730441534194155E-04   -1.6877458120382450E-04
           3.1934051573392317E-04   -9.1792048234781815E-05   -3.0450707339554758E-05
           4.8940772530275110E-04   -1.6726276100434375E-03    1.3729269711511855E-03
           7.1153833119315868E-04    1.1141075261540030E-03    1.0506874702209184E-03
          -2.2446244939086204E-04   -1.7159449472436495E-04    1.3038096996047249E-04
           2.6808399022617505E-04    2.7269367738700929E-04    8.2031225986658790E-05
          -6.2678710860973466E-04   -2.2153945860331559E-03   -1.2151955776825950E-03
           1.3904717474546555E-04    2.3647376309004325E-05   -7.7682173661109194E-05
           7.8617108355491364E-04   -9.1563231415707827E-04    7.7842122343877069E-04
          -3.4825516867361615E-04    6.9841537761725406E-04    4.3366300443035987E-04
          -3.1161710734077248E-04   -1.5812201161420858E-05   -4.0479781969773740E-04
          -7.6090474538912766E-04    1.3228539850375005E-03   -6.3952072014239849E-04
          -8.0686379469871656E-05   -9.1902749105567428E-05   -2.2079014865495185E-03
          -3.3677076860492679E-04   -3.2834719353243108E-05    3.1977576862310186E-04
          -4.6813394952946224E-04    3.4148542612915571E-04    4.2694647526825172E-04
           2.2005731229036182E-03    3.4958550227356765E-04    5.9942967298423936E-04
           1.6521421766271379E-04    4.2407349822618887E-05    5.3894136647224537E-04
          -5.8638377370792824E-04    5.6917518112312680E-06   -1.6932288442627971E-04
           1.8034582983998930E-05   -5.1832952048997023E-04   -7.6429946851935869E-04
          -2.4465421760257378E-04    4.2315400154134746E-05   -2.2238166933012430E-04
           7.6979556220885476E-04   -2.3290598013349446E-04    5.7083534778295045E-04
           1.3815763286499415E-03    6.2368582821256923E-05    4.1480727061876161E-05
           4.4803197786776755E-05    4.6632655661419466E-04   -5.9607180699679046E-04
          -8.1448666442489879E-04   -3.5797433114913518E-05    6.1026040920276396E-04
           3.8068774407838842E-04   -2.8321706314561791E-04    3.1637560861070619E-04
     &END VELOCITY
     &TOPOLOGY
       COORD_FILE_NAME ./IR-32W.xyz
       COORD_FILE_FORMAT  XYZ
       NUMBER_OF_ATOMS  96
       MULTIPLE_UNIT_CELL  1 1 1
     &END TOPOLOGY
   &END SUBSYS
 &END FORCE_EVAL
